Cu Fe O  S 
 1.0000000000000000
    51.5837707519999995    0.0000000000000000    0.0000000000000000
    16.5063127736000013   48.8715361288000025    0.0000000000000000
     0.0000000000000000    0.0000000000000000   35.1925086975000028
 Cu  Fe  O   S  
 512 456  96 1024
Selective dynamics
Cartesian
 19.2705381650390954  9.1958456722158477 15.6476701992355736   F   F   F
 27.6921482287463547 24.4864021984821427 19.4339500765424056   T   T   T
 33.9092916403847369 24.2486161961829758 19.0940471063438224   T   T   T
 40.5189334558221503 24.4296388653765497 19.3809621720748169   T   T   T
 46.9698864051150977 24.3711298020836757 19.3191896674080006   T   T   T
 53.4551116531383812 24.4354014151585019 19.3902694505470166   T   T   T
 10.1857962800988489 30.5331368778564247 19.2682603233057392   T   T   T
 16.8136886564186305 30.5161337499324645 19.3787909260685609   T   T   T
 23.3701643387046261 30.5475806022626806 19.4266445410464001   T   T   T
 29.6676047724306464 30.4751984553935067 19.2669361566256789   T   T   T
 36.0719228115555453 30.6254334947847582 19.3969008361807340   T   T   T
 42.6262616386027844 30.5902317007674682 19.4052836057019498   T   T   T
 49.2209562145459287 30.5614384578053233 19.4663034402159703   T   T   T
 55.4492462857511299 30.4225236077301489 19.2143770640865803   T   T   T
 21.0346501919201465 24.3813438247278071 19.2336096281336744   T   T   T
 12.3240559260276292 36.6897822047996769 19.3182102001063463   T   T   T
 25.4094349156032813 36.7007253313318529 19.4505607866483281   T   T   T
 31.7572597943966848 36.6471061163378451 19.3001180845243354   T   T   T
 37.9958897227704782 36.7000546557488434 19.2943453871075157   T   T   T
 44.6515151106836257 36.6053783844905851 19.3350878621226236   T   T   T
 51.1996233948659949 36.6615990177148134 19.4309360618244646   T   T   T
 57.6008143579854419 36.7584619380568967 19.4073768793992762   T   T   T
 14.4722405754205052 42.6768491274305859 19.2561110500679860   T   T   T
 20.8456411841251565 42.8722779067287192 19.3697058884318238   T   T   T
 27.3252730874869201 42.7879466171425022 19.3484089875346505   T   T   T
 33.8596437944240520 42.7496041639806919 19.3864213675604660   T   T   T
 40.4090975763366913 42.7871966044016148 19.4436028013183062   T   T   T
 46.7275475234025421 42.7273412367431789 19.3007598910096547   T   T   T
 52.9945315472835716 42.8165079664969710 19.3066324691725519   T   T   T
 18.8619983145940679 36.6253371265854426 19.3620428889254406   T   T   T
 59.7871833917285329 42.7317820416180112 19.4515532880926507   T   T   T
 14.7312085741755503 24.5173859457145582 19.3930631181214856   T   T   T
 51.4919181806396864 18.3313746868409879 19.4003803434621034   T   T   T
 19.4533220102090354  0.0048731063969213 19.4270190686255191   T   T   T
 25.8545094241695992  0.0424885908378894 19.3729135608283620   T   T   T
 32.3004072567634708  0.1459291796483326 19.4032866114946181   T   T   T
 38.7722006864947915 -0.0982703837111445 19.3275164315759014   T   T   T
 45.2014392616122507  0.0146882791676310 19.3886693927927176   T   T   T
  2.1584948247363474  6.2434137876148901 19.4296074987362886   T   T   T
  8.6531637742839660  6.0957959105050588 19.4078725874111520   T   T   T
 15.0121171706480077  6.0689402697463768 19.3179980265555393   T   T   T
 21.4043540297480632  6.1639131630020696 19.4116002738046198   T   T   T
 27.9103452666724579  6.1290229497441242 19.3696746655436698   T   T   T
 34.5089502777982773  6.1099918839104124 19.4714475063742043   T   T   T
 40.7860485843545248  6.0674795943458175 19.3107030699845872   T   T   T
 47.1585939196161874  6.1101636561323174 19.3400844616342411   T   T   T
  8.1758099885726505 24.3133884681619215 19.1988625658212548   T   T   T
  4.2358165304529578 12.2295951087187902 19.4256757692829218   T   T   T
 16.9684104087883334 12.2562840385832175 19.3747053340850357   T   T   T
 23.6611952930045213 12.2374174652907115 19.4723462671280281   T   T   T
 30.0023065847557895 12.1269222437694175 19.3072087822447003   T   T   T
 36.3112973234096330 12.2288753633314951 19.3468146816561664   T   T   T
 42.8954086799569296 12.1321136911584979 19.3117982407801101   T   T   T
 49.2568376076554770 12.2798603950390763 19.3631764290818857   T   T   T
  6.2074343026670720 18.2566610495535251 19.2754022203354829   T   T   T
 12.6521783320995862 18.3376720687919104 19.2840928616750027   T   T   T
 19.0538057535896250 18.3316632838570008 19.3452619000249122   T   T   T
 25.5595401828198412 18.3063661435572698 19.3514021254197850   T   T   T
 32.0841653654383734 18.2946682658400839 19.3308571556119269   T   T   T
 38.5309503982366195 18.3712435667005813 19.4127609576809448   T   T   T
 44.9840389180501674 18.3173585207263372 19.3979042938208792   T   T   T
 10.6130163957874899 12.2323423628812069 19.3194490688872058   T   T   T
 12.9272213225980419 -0.0470271567796369 19.3006069530409157   T   T   T
  3.9523317820804023  2.7947475483282904 22.5594374966243052   T   T   T
 16.7526336437261243  2.8311324569485525 22.4743591986345486   T   T   T
 31.9309427525365024 26.7064548323511808 21.2657328188930990   T   T   T
 36.0435212393169166 27.2195685023633125 21.3292270223762266   T   T   T
 44.4003328687871388 27.4365950952399906 22.4655993551231710   T   T   T
 50.9437417792383371 27.2782348108401749 22.4460782240692396   T   T   T
 57.8198077556378962 27.3376667077025672 22.6380157158446842   T   T   T
 13.3809257225840970 34.3177921162904198 21.5123370516733594   T   T   T
 21.0269848275730844 33.1973606566803028 22.5047109983145681   T   T   T
 27.5524704177745612 32.9787805255539155 22.3422994020485248   T   T   T
 33.5890118009994794 33.3721406423204172 22.5072836610506357   T   T   T
 39.9562312420354786 33.6878747199096296 22.3976354898095344   T   T   T
 46.8720338709586031 33.1646224470030404 22.5411049349971861   T   T   T
 53.3712517901167303 32.9775708341285707 22.3494292532227199   T   T   T
 59.4359777665604199 33.0351065196189495 22.3337225751765374   T   T   T
 24.0028010131842784 27.7731483084486186 21.6251429461022902   T   T   T
 16.1803567186507564 39.4544815728441876 22.4501604810792870   T   T   T
 29.5770223931239400 39.2792401202202015 22.3975620669405444   T   T   T
 35.4666939155296390 39.7926618783451147 22.2061243098831049   T   T   T
 42.0299818675016255 39.5822603689626078 22.4544620667259345   T   T   T
 48.6024897829918245 39.4036046371431539 22.5500973905062949   T   T   T
 55.1634773972995589 39.3398380645320529 22.4050874925094448   T   T   T
 61.8413311604010758 39.7947128400617700 19.4167115183107946   T   T   T
 18.4743031107818858 45.4931557856393596 22.3086116441650688   T   T   T
 25.3819677948924891 45.8822485034413958 22.3767890447970537   T   T   T
 31.5312111730772813 45.5848016853919233 22.5916530444104922   T   T   T
 38.0673281069474214 45.3037790262146984 22.4539074168132160   T   T   T
 44.4478622938300916 45.3097302906592247 22.4004329141990652   T   T   T
 50.5163395398676727 45.6845826258456285 22.4582348532815921   T   T   T
 57.5644756639082331 44.9097529132480418 22.2895599283885026   T   T   T
 22.8296165900002492 39.5049096296927473 22.4883259140806899   T   T   T
 10.4146890272117272  2.9285127150530639 22.5183043892410417   T   T   T
 18.8308305938079528 27.6033820918563038 22.4679140349028188   T   T   T
 55.7164976436709907 20.8567406418306831 22.3360343188674371   T   T   T
 23.5478862580498927  2.7121595346989888 22.3944794130667475   T   T   T
 29.5797639626043249  2.7712044776276255 22.4941876686143303   T   T   T
 36.3045574145094037  2.4025186032247268 22.0449748010541562   T   T   T
 42.6383016720494012  2.6708829713191511 22.5600179064826385   T   T   T
 49.0748064799923611  2.9961111836555152 22.5775185939674863   T   T   T
  5.9938707842007801  8.7446525189914670 22.0337371906732962   T   T   T
 12.7291733432175906  8.6060948988749217 22.4303000370868446   T   T   T
 18.8448683959019228  9.0874666670750699 22.4390234527371604   T   T   T
 25.6402200517869545  8.9566982548974661 22.3513782473316063   T   T   T
 31.8481295200852088  8.5835827415288222 22.4633447764356937   T   T   T
 38.5671065798686072  8.6086429457774098 22.3205185040719307   T   T   T
 43.7324787636307235  9.1028075213646673 21.4897362022814988   T   T   T
 50.8476757216313402  9.0164928288725434 22.5623020818029261   T   T   T
 12.6311593794986212 27.4627269765381001 22.4417246782382946   T   T   T
  8.2123549914683771 14.5769757779376370 22.5077421656680663   T   T   T
 21.1016922953693715 15.1148076461656924 22.4847110850377163   T   T   T
 28.0001061007380478 14.8572563058326530 22.3551105599431459   T   T   T
 33.8207404287892999 15.0675365046489151 22.4227378973506468   T   T   T
 40.5364475041569321 14.9013770217423502 22.3958284165420416   T   T   T
 47.1919160526651140 15.0522577193022986 22.6806306665715312   T   T   T
 53.4562823508738774 14.8625167605806645 22.4367690418431742   T   T   T
  9.5595362104398838 21.6832499286975064 21.1378180743770336   T   T   T
 16.9386387022963874 21.5937075020767963 22.3256663873370726   T   T   T
 22.9765468189730342 21.1933213258282045 22.6976571214531582   T   T   T
 29.3251661240133004 21.2983695163866074 22.4988765104005886   T   T   T
 35.9477925276644470 20.9535469974957387 22.4640165953947140   T   T   T
 42.0692606217297893 21.4941999722096817 22.3988859973418712   T   T   T
 48.8287740230016922 21.3248340915397669 22.4264966726904795   T   T   T
 14.1835824832790607 15.5640777171079954 22.3373109183813341   T   T   T
 63.9596061093502612 45.3478008855438617 22.3427027429295926   T   T   T
  6.5326286155771394  0.0385988673191478 19.4065296673393100   T   T   T
 63.8901294652391059 45.8494977688158514 15.6476701992355736   F   F   F
 36.5048461035414036 12.3125145985003890 11.6694502797732387   F   F   F
 30.0568747595413974 12.3125145985003890 11.6694502797732387   F   F   F
 23.6089034155414019 12.3125145985003890 11.6694502797732387   F   F   F
 17.1609320715414029 12.3125145985003890 11.6694502797732387   F   F   F
 10.7129607275414003 12.3125145985003890 11.6694502797732387   F   F   F
  4.2649893835414021 12.3125145985003890 11.6694502797732387   F   F   F
 47.3374996948413980  6.2035725824003869 11.6694502797732387   F   F   F
 40.8895283508413954  6.2035725824003869 11.6694502797732387   F   F   F
 34.4415570068413999  6.2035725824003869 11.6694502797732387   F   F   F
 27.9935856628413973  6.2035725824003869 11.6694502797732387   F   F   F
 21.5456143188414018  6.2035725824003869 11.6694502797732387   F   F   F
 15.0976429748414009  6.2035725824003869 11.6694502797732387   F   F   F
  8.6496716308414001  6.2035725824003869 11.6694502797732387   F   F   F
 42.9528174475413991 12.3125145985003890 11.6694502797732387   F   F   F
  2.2017002868414011  6.2035725824003869 11.6694502797732387   F   F   F
 38.8262392541413988  0.0946305663003873 11.6694502797732387   F   F   F
 32.3782679101414033  0.0946305663003873 11.6694502797732387   F   F   F
 25.9302965661413971  0.0946305663003873 11.6694502797732387   F   F   F
 19.4823252221414016  0.0946305663003873 11.6694502797732387   F   F   F
 13.0343538781414008  0.0946305663003873 11.6694502797732387   F   F   F
  6.5863825341414000  0.0946305663003873 11.6694502797732387   F   F   F
  0.1384111901414013  0.0946305663003873 11.6694502797732387   F   F   F
 14.5814348670414002 42.8572246790003817 11.6694502797732387   F   F   F
 21.0294062110414011 42.8572246790003817 11.6694502797732387   F   F   F
 27.4773775550414037 42.8572246790003817 11.6694502797732387   F   F   F
 33.9253488990414027 42.8572246790003817 11.6694502797732387   F   F   F
 40.3733202430413982 42.8572246790003817 11.6694502797732387   F   F   F
 46.8212915870414008 42.8572246790003817 11.6694502797732387   F   F   F
 45.2742105981414014  0.0946305663003873 11.6694502797732387   F   F   F
 53.2692629310413963 42.8572246790003817 11.6694502797732387   F   F   F
 49.4007887915414017 12.3125145985003890 11.6694502797732387   F   F   F
 12.7762498242414004 18.4214566146003875 11.6694502797732387   F   F   F
 44.7580024903414042 36.7482826629003867 11.6694502797732387   F   F   F
 38.3100311463414016 36.7482826629003867 11.6694502797732387   F   F   F
 31.8620598023414026 36.7482826629003867 11.6694502797732387   F   F   F
 25.4140884583414035 36.7482826629003867 11.6694502797732387   F   F   F
 18.9661171143414009 36.7482826629003867 11.6694502797732387   F   F   F
 12.5181457703414001 36.7482826629003867 11.6694502797732387   F   F   F
 55.5906560816413986 30.6393406468003846 11.6694502797732387   F   F   F
 49.1426847376413960 30.6393406468003846 11.6694502797732387   F   F   F
 42.6947133936414005 30.6393406468003846 11.6694502797732387   F   F   F
 36.2467420496413979 30.6393406468003846 11.6694502797732387   F   F   F
 29.7987707056414024 30.6393406468003846 11.6694502797732387   F   F   F
 23.3507993616414034 30.6393406468003846 11.6694502797732387   F   F   F
 16.9028280176414007 30.6393406468003846 11.6694502797732387   F   F   F
  6.3282784802414023 18.4214566146003875 11.6694502797732387   F   F   F
 10.4548566736413999 30.6393406468003846 11.6694502797732387   F   F   F
 47.0793956409413994 24.5303986307003896 11.6694502797732387   F   F   F
 40.6314242969414039 24.5303986307003896 11.6694502797732387   F   F   F
 34.1834529529414013 24.5303986307003896 11.6694502797732387   F   F   F
 27.7354816089414022 24.5303986307003896 11.6694502797732387   F   F   F
 21.2875102649414032 24.5303986307003896 11.6694502797732387   F   F   F
 14.8395389209414006 24.5303986307003896 11.6694502797732387   F   F   F
  8.3915675769414015 24.5303986307003896 11.6694502797732387   F   F   F
 51.4640778882413983 18.4214566146003875 11.6694502797732387   F   F   F
 45.0161065442413957 18.4214566146003875 11.6694502797732387   F   F   F
 38.5681352002414002 18.4214566146003875 11.6694502797732387   F   F   F
 32.1201638562413976 18.4214566146003875 11.6694502797732387   F   F   F
 25.6721925122414021 18.4214566146003875 11.6694502797732387   F   F   F
 19.2242211682414030 18.4214566146003875 11.6694502797732387   F   F   F
 53.5273669849414091 24.5303986307003896 11.6694502797732387   F   F   F
  0.1049104970074215  0.0751519985451620 19.4240579054368112   T   T   T
 59.7172342750413989 42.8572246790003817 11.6694502797732387   F   F   F
 10.7592777243390945  3.0869036561158465 15.6476701992355736   F   F   F
 31.9083767991390950 27.5226717205158486 15.6476701992355736   F   F   F
 38.3563481431391011 27.5226717205158486 15.6476701992355736   F   F   F
 44.8043194871390966 27.5226717205158486 15.6476701992355736   F   F   F
 51.2522908311390992 27.5226717205158486 15.6476701992355736   F   F   F
 57.7002621751390947 27.5226717205158486 15.6476701992355736   F   F   F
 14.6277518638390944 33.6316137366158472 15.6476701992355736   F   F   F
 21.0757232078390935 33.6316137366158472 15.6476701992355736   F   F   F
 27.5236945518390961 33.6316137366158472 15.6476701992355736   F   F   F
 33.9716658958390951 33.6316137366158472 15.6476701992355736   F   F   F
 40.4196372398390977 33.6316137366158472 15.6476701992355736   F   F   F
 46.8676085838391003 33.6316137366158472 15.6476701992355736   F   F   F
 53.3155799278391029 33.6316137366158472 15.6476701992355736   F   F   F
 59.7635512718390984 33.6316137366158472 15.6476701992355736   F   F   F
 25.4604054551390959 27.5226717205158486 15.6476701992355736   F   F   F
 16.6910409605390946 39.7405557527158422 15.6476701992355736   F   F   F
 29.5869836485390962 39.7405557527158422 15.6476701992355736   F   F   F
 36.0349549925390988 39.7405557527158422 15.6476701992355736   F   F   F
 42.4829263365391014 39.7405557527158422 15.6476701992355736   F   F   F
 48.9308976805390969 39.7405557527158422 15.6476701992355736   F   F   F
 55.3788690245390995 39.7405557527158422 15.6476701992355736   F   F   F
 61.8268403685390950 39.7405557527158422 15.6476701992355736   F   F   F
 18.7543300572390947 45.8494977688158514 15.6476701992355736   F   F   F
 25.2023014012390973 45.8494977688158514 15.6476701992355736   F   F   F
 31.6502727452390964 45.8494977688158514 15.6476701992355736   F   F   F
 38.0982440892390954 45.8494977688158514 15.6476701992355736   F   F   F
 44.5462154332390980 45.8494977688158514 15.6476701992355736   F   F   F
 50.9941867772391006 45.8494977688158514 15.6476701992355736   F   F   F
 57.4421581212391104 45.8494977688158514 15.6476701992355736   F   F   F
 23.1390123045390936 39.7405557527158422 15.6476701992355736   F   F   F
  4.3113063803390945  3.0869036561158465 15.6476701992355736   F   F   F
 19.0124341111390969 27.5226717205158486 15.6476701992355736   F   F   F
 55.6369730784390839 21.4137297044158466 15.6476701992355736   F   F   F
 17.2072490683390953  3.0869036561158465 15.6476701992355736   F   F   F
 23.6552204123390943  3.0869036561158465 15.6476701992355736   F   F   F
 30.1031917563390969  3.0869036561158465 15.6476701992355736   F   F   F
 36.5511631003390960  3.0869036561158465 15.6476701992355736   F   F   F
 42.9991344443390986  3.0869036561158465 15.6476701992355736   F   F   F
 49.4471057883390941  3.0869036561158465 15.6476701992355736   F   F   F
  6.3745954770390947  9.1958456722158477 15.6476701992355736   F   F   F
 12.8225668210390946  9.1958456722158477 15.6476701992355736   F   F   F
 25.7185095090390945  9.1958456722158477 15.6476701992355736   F   F   F
 32.1664808530390971  9.1958456722158477 15.6476701992355736   F   F   F
 38.6144521970390997  9.1958456722158477 15.6476701992355736   F   F   F
 45.0624235410391023  9.1958456722158477 15.6476701992355736   F   F   F
 51.5103948850390978  9.1958456722158477 15.6476701992355736   F   F   F
 12.5644627671390960 27.5226717205158486 15.6476701992355736   F   F   F
  8.4378845737390940 15.3047876883158462 15.6476701992355736   F   F   F
 21.3338272617390956 15.3047876883158462 15.6476701992355736   F   F   F
 27.7817986057390947 15.3047876883158462 15.6476701992355736   F   F   F
 34.2297699497390937 15.3047876883158462 15.6476701992355736   F   F   F
 40.6777412937390963 15.3047876883158462 15.6476701992355736   F   F   F
 47.1257126377390989 15.3047876883158462 15.6476701992355736   F   F   F
 53.5736839817390944 15.3047876883158462 15.6476701992355736   F   F   F
 10.5011736704390941 21.4137297044158466 15.6476701992355736   F   F   F
 16.9491450144390932 21.4137297044158466 15.6476701992355736   F   F   F
 23.3971163584390958 21.4137297044158466 15.6476701992355736   F   F   F
 29.8450877024390948 21.4137297044158466 15.6476701992355736   F   F   F
 36.2930590464390974 21.4137297044158466 15.6476701992355736   F   F   F
 42.7410303904390929 21.4137297044158466 15.6476701992355736   F   F   F
 49.1890017344390884 21.4137297044158466 15.6476701992355736   F   F   F
 14.8858559177390948 15.3047876883158462 15.6476701992355736   F   F   F
  3.2919071389349108  0.0462247514751413 13.7357066000366093   F   F   F
  9.7398784829349125  0.0462247514751413 13.7357066000366093   F   F   F
 16.1878498269349116  0.0462247514751413 13.7357066000366093   F   F   F
 36.8565529337528375 24.5034006197336041 21.1571103526421531   T   T   T
 43.8413488785404937 24.6148648681104589 21.3104659064668311   T   T   T
 50.2388935075614711 24.4436034594531186 21.1875161326529593   T   T   T
 56.4828453648618520 24.4535942768144068 21.2208668578081685   T   T   T
 13.0892869986241838 30.7341798906655583 20.9052997657293673   T   T   T
 20.2252234859346913 30.6423365425664507 21.3812979289120975   T   T   T
 26.6499242599813719 30.5548016211151321 21.1891096868966784   T   T   T
 32.6744437292153052 30.8510289245692704 21.4839355421129810   T   T   T
 39.1258553446448829 30.7396318287915804 21.1115542913929701   T   T   T
 46.0976867805682886 30.6269703940907121 21.3277903531953363   T   T   T
 52.5412765099385624 30.5408059170359500 21.2577313798811147   T   T   T
 58.2906954319654602 30.6458973156536594 21.2419861518615960   T   T   T
 15.4381045100046634 36.7737431298262862 21.1549295891853824   T   T   T
 31.3160423019369283 24.2246635033840363 21.0359264509423554   T   T   T
 21.9917104222419582 36.6859439891902852 21.1066721172416187   T   T   T
 34.6241902726297894 36.9046463605140360 21.1934564275379991   T   T   T
 41.3405583826000438 36.7809732969600134 21.1704223996563172   T   T   T
 47.9303288476453133 36.6769352887928335 21.2090600181289481   T   T   T
 54.5788563054946039 36.8268164795012609 21.2904162126362841   T   T   T
 60.7942204330186371 36.5346190444837973 21.1788085838002260   T   T   T
 17.1545488736733667 42.7599464082996974 21.2331505619930070   T   T   T
 24.1187254656524672 42.8780048409776384 21.0601829617020186   T   T   T
 30.6105587901115079 43.0493362809437414 21.3211241549527983   T   T   T
 37.1161187100129837 42.8491573764956755 21.2946936251708081   T   T   T
 43.7702339654091048 42.9026599127195212 21.2858842859756692   T   T   T
 49.5402901516127443 42.8487367300682251 21.3371285310662095   T   T   T
 56.2672733995413310 42.8467239814038905 21.0695823163292140   T   T   T
 63.2048637055966296 42.7793649327946994 21.2460593655782084   T   T   T
 28.9268593975855524 36.8410759263162007 21.3250298176235411   T   T   T
  7.2066494316450838  2.8100591227635059 10.5076069091843713   F   F   F
 23.9392709619545840 24.4352155429208757 21.0608198865536735   T   T   T
 11.3433251500685870 24.7288950149248272 21.1792787619410099   T   T   T
 29.5583903309831157  0.1166515942370118 21.4548112235174742   T   T   T
 35.4804796799288553 -0.0796359312994780 21.1682234658313071   T   T   T
 41.9885403656989453 -0.1389437101042414 21.2862382553728651   T   T   T
 48.5383586931200099  0.2415472679735307 21.3509782269826260   T   T   T
  5.4735102139559100  6.1835573875459326 21.3129320453070221   T   T   T
 12.1397983826413949  6.2037020503802527 21.3014251552270792   T   T   T
 17.7998705283646679  6.1687992465284722 21.2660896811175455   T   T   T
 24.9045155482577663  6.3132460403385569 21.2194416968186701   T   T   T
 31.5457153366533838  6.0669621172349153 21.3926840030585090   T   T   T
 37.7965428163927228  6.2105578965772823 21.2951088537746536   T   T   T
 43.4522999634154985  6.0430327864991789 21.2537671517227018   T   T   T
 50.5545935737397514  6.2426522450960995 21.2933363160499205   T   T   T
  7.6338606946693721 12.3119729043382744 21.2930111988854591   T   T   T
 17.8714159136552446 24.7175193605890264 21.1242333100119488   T   T   T
 13.3521886237094787 12.4465610424072413 21.2487337970072296   T   T   T
 27.1844285107348362 12.4763742818942394 21.2963626080002442   T   T   T
 32.7128928489169581 12.1370550735259446 21.2308944482874971   T   T   T
 39.7201025447006870 12.1948951311348868 21.1503007347328342   T   T   T
 45.9409158991753799 12.2100035263253037 21.2403432413115034   T   T   T
 52.4636923181701817 12.2786608649482414 21.1183523202184205   T   T   T
  8.8402757556184053 18.4087347401756460 21.1928803914207897   T   T   T
 15.8198135659980270 18.5803709587370420 21.0408415618027398   T   T   T
 22.1560810400789805 18.2958466416425551 21.1200673129251797   T   T   T
 28.4909512542677454 18.4545511828160578 20.9550098789133941   T   T   T
 35.4267198233352900 18.2695637787009844 21.1925595003277714   T   T   T
 42.0507562371220018 18.1558657612665080 21.2211334945864145   T   T   T
 47.8941497236323315 18.4465329334510884 21.0370663279834389   T   T   T
 55.0674423945562310 18.2983625364637348 21.2934373053327910   T   T   T
 20.3008273711738418 12.2736656349663047 21.1617299778543995   T   T   T
 22.8891115580000211  0.0102264388589177 21.2445001427316953   T   T   T
 13.6546207756450855  2.8100591227635059 10.5076069091843713   F   F   F
 26.5505634636450836  2.8100591227635059 10.5076069091843713   F   F   F
 41.2516911944450868 27.2458271871635063 10.5076069091843713   F   F   F
 47.6996625384450823 27.2458271871635063 10.5076069091843713   F   F   F
 54.1476338824450920 27.2458271871635063 10.5076069091843713   F   F   F
 60.5956052264450875 27.2458271871635063 10.5076069091843713   F   F   F
 17.5230949151450837 33.3547692032635084 10.5076069091843713   F   F   F
 23.9710662591450898 33.3547692032635084 10.5076069091843713   F   F   F
 30.4190376031450889 33.3547692032635084 10.5076069091843713   F   F   F
 36.8670089471450879 33.3547692032635084 10.5076069091843713   F   F   F
 43.3149802911450834 33.3547692032635084 10.5076069091843713   F   F   F
 49.7629516351450789 33.3547692032635084 10.5076069091843713   F   F   F
 56.2109229791450815 33.3547692032635084 10.5076069091843713   F   F   F
 62.6588943231450770 33.3547692032635084 10.5076069091843713   F   F   F
 19.5863840118450803 39.4637112193635033 10.5076069091843713   F   F   F
 34.8037198504450842 27.2458271871635063 10.5076069091843713   F   F   F
 26.0343553558450864 39.4637112193635033 10.5076069091843713   F   F   F
 38.9302980438450845 39.4637112193635033 10.5076069091843713   F   F   F
 45.3782693878450871 39.4637112193635033 10.5076069091843713   F   F   F
 51.8262407318450826 39.4637112193635033 10.5076069091843713   F   F   F
 58.2742120758450852 39.4637112193635033 10.5076069091843713   F   F   F
 64.7221834198450807 39.4637112193635033 10.5076069091843713   F   F   F
 21.6496731085450804 45.5726532354634983 10.5076069091843713   F   F   F
 28.0976444525450866 45.5726532354634983 10.5076069091843713   F   F   F
 34.5456157965450856 45.5726532354634983 10.5076069091843713   F   F   F
 40.9935871405450882 45.5726532354634983 10.5076069091843713   F   F   F
 47.4415584845450837 45.5726532354634983 10.5076069091843713   F   F   F
 53.8895298285450792 45.5726532354634983 10.5076069091843713   F   F   F
 60.3375011725450818 45.5726532354634983 10.5076069091843713   F   F   F
 66.7854725165450844 45.5726532354634983 10.5076069091843713   F   F   F
 32.4823266998450890 39.4637112193635033 10.5076069091843713   F   F   F
 20.1025921196450881  2.8100591227635059 10.5076069091843713   F   F   F
 28.3557485064450887 27.2458271871635063 10.5076069091843713   F   F   F
 15.4598058184450835 27.2458271871635063 10.5076069091843713   F   F   F
 32.9985348076450862  2.8100591227635059 10.5076069091843713   F   F   F
 39.4465061516450817  2.8100591227635059 10.5076069091843713   F   F   F
 45.8944774956450843  2.8100591227635059 10.5076069091843713   F   F   F
 52.3424488396450798  2.8100591227635059 10.5076069091843713   F   F   F
  9.2699385283450830  8.9190011388635053 10.5076069091843713   F   F   F
 15.7179098723450892  8.9190011388635053 10.5076069091843713   F   F   F
 22.1658812163450882  8.9190011388635053 10.5076069091843713   F   F   F
 28.6138525603450837  8.9190011388635053 10.5076069091843713   F   F   F
 35.0618239043450828  8.9190011388635053 10.5076069091843713   F   F   F
 41.5097952483450783  8.9190011388635053 10.5076069091843713   F   F   F
 47.9577665923450809  8.9190011388635053 10.5076069091843713   F   F   F
 54.4057379363450764  8.9190011388635053 10.5076069091843713   F   F   F
 11.3332276250450832 15.0279431549635074 10.5076069091843713   F   F   F
 21.9077771624450897 27.2458271871635063 10.5076069091843713   F   F   F
 17.7811989690450858 15.0279431549635074 10.5076069091843713   F   F   F
 30.6771416570450839 15.0279431549635074 10.5076069091843713   F   F   F
 37.1251130010450865 15.0279431549635074 10.5076069091843713   F   F   F
 43.5730843450450820 15.0279431549635074 10.5076069091843713   F   F   F
 50.0210556890450846 15.0279431549635074 10.5076069091843713   F   F   F
 56.4690270330450801 15.0279431549635074 10.5076069091843713   F   F   F
 13.3965167217450833 21.1368851710635077 10.5076069091843713   F   F   F
 19.8444880657450859 21.1368851710635077 10.5076069091843713   F   F   F
 26.2924594097450885 21.1368851710635077 10.5076069091843713   F   F   F
 32.7404307537450876 21.1368851710635077 10.5076069091843713   F   F   F
 39.1884020977450831 21.1368851710635077 10.5076069091843713   F   F   F
 45.6363734417450786 21.1368851710635077 10.5076069091843713   F   F   F
 52.0843447857450812 21.1368851710635077 10.5076069091843713   F   F   F
 58.5323161297450767 21.1368851710635077 10.5076069091843713   F   F   F
 24.2291703130450884 15.0279431549635074 10.5076069091843713   F   F   F
 16.0004584012881352  0.0811712131005490 21.1788119775248092   T   T   T
  9.6872004163933827  0.2053077763078670 21.3303268264716905   T   T   T
  3.2809385731155998  0.1489776070757252 21.3226171336186034   T   T   T
 30.8889775577349113 24.4819928158751452 13.7357066000366093   F   F   F
 37.3369489017349068 24.4819928158751452 13.7357066000366093   F   F   F
 43.7849202457349094 24.4819928158751452 13.7357066000366093   F   F   F
 50.2328915897349120 24.4819928158751452 13.7357066000366093   F   F   F
 56.6808629337349146 24.4819928158751452 13.7357066000366093   F   F   F
 13.6083526224349107 30.5909348319751402 13.7357066000366093   F   F   F
 20.0563239664349133 30.5909348319751402 13.7357066000366093   F   F   F
 26.5042953104349124 30.5909348319751402 13.7357066000366093   F   F   F
 32.9522666544349150 30.5909348319751402 13.7357066000366093   F   F   F
 39.4002379984349034 30.5909348319751402 13.7357066000366093   F   F   F
 45.8482093424349060 30.5909348319751402 13.7357066000366093   F   F   F
 52.2961806864349086 30.5909348319751402 13.7357066000366093   F   F   F
 58.7441520304349112 30.5909348319751402 13.7357066000366093   F   F   F
 24.4410062137349122 24.4819928158751452 13.7357066000366093   F   F   F
 15.6716417191349109 36.6998768480751423 13.7357066000366093   F   F   F
 28.5675844071349125 36.6998768480751423 13.7357066000366093   F   F   F
 35.0155557511349116 36.6998768480751423 13.7357066000366093   F   F   F
 41.4635270951349071 36.6998768480751423 13.7357066000366093   F   F   F
 47.9114984391349097 36.6998768480751423 13.7357066000366093   F   F   F
 54.3594697831349052 36.6998768480751423 13.7357066000366093   F   F   F
 60.8074411271349149 36.6998768480751423 13.7357066000366093   F   F   F
 17.7349308158349110 42.8088188641751373 13.7357066000366093   F   F   F
 24.1829021598349136 42.8088188641751373 13.7357066000366093   F   F   F
 30.6308735038349127 42.8088188641751373 13.7357066000366093   F   F   F
 37.0788448478349153 42.8088188641751373 13.7357066000366093   F   F   F
 43.5268161918349037 42.8088188641751373 13.7357066000366093   F   F   F
 49.9747875358349063 42.8088188641751373 13.7357066000366093   F   F   F
 56.4227588798349089 42.8088188641751373 13.7357066000366093   F   F   F
 22.1196130631349135 36.6998768480751423 13.7357066000366093   F   F   F
 62.8707302238349115 42.8088188641751373 13.7357066000366093   F   F   F
 17.9930348697349132 24.4819928158751452 13.7357066000366093   F   F   F
 54.6175738370349109 18.3730507997751431 13.7357066000366093   F   F   F
 22.6358211709349106  0.0462247514751413 13.7357066000366093   F   F   F
 29.0837925149349061  0.0462247514751413 13.7357066000366093   F   F   F
 35.5317638589349087  0.0462247514751413 13.7357066000366093   F   F   F
 41.9797352029349113  0.0462247514751413 13.7357066000366093   F   F   F
 48.4277065469349139  0.0462247514751413 13.7357066000366093   F   F   F
  5.3551962356349110  6.1551667675751425 13.7357066000366093   F   F   F
 11.8031675796349127  6.1551667675751425 13.7357066000366093   F   F   F
 18.2511389236349117  6.1551667675751425 13.7357066000366093   F   F   F
 24.6991102676349108  6.1551667675751425 13.7357066000366093   F   F   F
 31.1470816116349063  6.1551667675751425 13.7357066000366093   F   F   F
 37.5950529556349053  6.1551667675751425 13.7357066000366093   F   F   F
 44.0430242996349079  6.1551667675751425 13.7357066000366093   F   F   F
 50.4909956436349106  6.1551667675751425 13.7357066000366093   F   F   F
 11.5450635257349123 24.4819928158751452 13.7357066000366093   F   F   F
  7.4184853323349111 12.2641087836751410 13.7357066000366093   F   F   F
 20.3144280203349119 12.2641087836751410 13.7357066000366093   F   F   F
 26.7623993643349110 12.2641087836751410 13.7357066000366093   F   F   F
 33.2103707083349065 12.2641087836751410 13.7357066000366093   F   F   F
 39.6583420523349091 12.2641087836751410 13.7357066000366093   F   F   F
 46.1063133963349117 12.2641087836751410 13.7357066000366093   F   F   F
 52.5542847403349143 12.2641087836751410 13.7357066000366093   F   F   F
  9.4817744290349104 18.3730507997751431 13.7357066000366093   F   F   F
 15.9297457730349112 18.3730507997751431 13.7357066000366093   F   F   F
 22.3777171170349121 18.3730507997751431 13.7357066000366093   F   F   F
 28.8256884610349111 18.3730507997751431 13.7357066000366093   F   F   F
 35.2736598050349102 18.3730507997751431 13.7357066000366093   F   F   F
 41.7216311490349057 18.3730507997751431 13.7357066000366093   F   F   F
 48.1696024930349083 18.3730507997751431 13.7357066000366093   F   F   F
 13.8664566763349111 12.2641087836751410 13.7357066000366093   F   F   F
  1.0873205922756009  3.0869036561158465 17.5448402050934327   F   F   F
  7.5352919362756010  3.0869036561158465 17.5448402050934327   F   F   F
 13.9832632802755992  3.0869036561158465 17.5448402050934327   F   F   F
 35.1323623550756068 27.5226717205158486 17.5448402050934327   F   F   F
 41.5803336990756023 27.5226717205158486 17.5448402050934327   F   F   F
 48.0283050430756049 27.5226717205158486 17.5448402050934327   F   F   F
 54.4762763870756004 27.5226717205158486 17.5448402050934327   F   F   F
 11.4037660757756001 33.6316137366158472 17.5448402050934327   F   F   F
 17.8517374197756062 33.6316137366158472 17.5448402050934327   F   F   F
 24.2997087637755982 33.6316137366158472 17.5448402050934327   F   F   F
 30.7476801077756043 33.6316137366158472 17.5448402050934327   F   F   F
 37.1956514517756034 33.6316137366158472 17.5448402050934327   F   F   F
 43.6436227957756060 33.6316137366158472 17.5448402050934327   F   F   F
 50.0915941397756086 33.6316137366158472 17.5448402050934327   F   F   F
 56.5395654837756041 33.6316137366158472 17.5448402050934327   F   F   F
 13.4670551724756002 39.7405557527158422 17.5448402050934327   F   F   F
 28.6843910110756006 27.5226717205158486 17.5448402050934327   F   F   F
 19.9150265164756064 39.7405557527158422 17.5448402050934327   F   F   F
 32.8109692044756045 39.7405557527158422 17.5448402050934327   F   F   F
 39.2589405484756071 39.7405557527158422 17.5448402050934327   F   F   F
 45.7069118924756026 39.7405557527158422 17.5448402050934327   F   F   F
 52.1548832364756052 39.7405557527158422 17.5448402050934327   F   F   F
 58.6028545804756007 39.7405557527158422 17.5448402050934327   F   F   F
 15.5303442691756022 45.8494977688158514 17.5448402050934327   F   F   F
 21.9783156131756030 45.8494977688158514 17.5448402050934327   F   F   F
 28.4262869571756021 45.8494977688158514 17.5448402050934327   F   F   F
 34.8742583011756011 45.8494977688158514 17.5448402050934327   F   F   F
 41.3222296451756037 45.8494977688158514 17.5448402050934327   F   F   F
 47.7702009891756134 45.8494977688158514 17.5448402050934327   F   F   F
 54.2181723331756089 45.8494977688158514 17.5448402050934327   F   F   F
 60.6661436771756044 45.8494977688158514 17.5448402050934327   F   F   F
 26.3629978604755983 39.7405557527158422 17.5448402050934327   F   F   F
 22.2364196670756016 27.5226717205158486 17.5448402050934327   F   F   F
 15.7884483230756025 27.5226717205158486 17.5448402050934327   F   F   F
  9.3404769790756017 27.5226717205158486 17.5448402050934327   F   F   F
 20.4312346242756000  3.0869036561158465 17.5448402050934327   F   F   F
 26.8792059682756026  3.0869036561158465 17.5448402050934327   F   F   F
 33.3271773122756017  3.0869036561158465 17.5448402050934327   F   F   F
 39.7751486562756043  3.0869036561158465 17.5448402050934327   F   F   F
 46.2231200002755998  3.0869036561158465 17.5448402050934327   F   F   F
  3.1506096889756012  9.1958456722158477 17.5448402050934327   F   F   F
  9.5985810329756021  9.1958456722158477 17.5448402050934327   F   F   F
 16.0465523769756011  9.1958456722158477 17.5448402050934327   F   F   F
 22.4945237209756002  9.1958456722158477 17.5448402050934327   F   F   F
 28.9424950649756028  9.1958456722158477 17.5448402050934327   F   F   F
 35.3904664089756054  9.1958456722158477 17.5448402050934327   F   F   F
 41.8384377529756080  9.1958456722158477 17.5448402050934327   F   F   F
 48.2864090969756035  9.1958456722158477 17.5448402050934327   F   F   F
  5.2138987856756005 15.3047876883158462 17.5448402050934327   F   F   F
 11.6618701296756004 15.3047876883158462 17.5448402050934327   F   F   F
 18.1098414736755942 15.3047876883158462 17.5448402050934327   F   F   F
 24.5578128176756003 15.3047876883158462 17.5448402050934327   F   F   F
 31.0057841616756029 15.3047876883158462 17.5448402050934327   F   F   F
 37.4537555056756020 15.3047876883158462 17.5448402050934327   F   F   F
 43.9017268496756046 15.3047876883158462 17.5448402050934327   F   F   F
 50.3496981936756001 15.3047876883158462 17.5448402050934327   F   F   F
  7.2771878823756007 21.4137297044158466 17.5448402050934327   F   F   F
 13.7251592263756006 21.4137297044158466 17.5448402050934327   F   F   F
 20.1731305703755943 21.4137297044158466 17.5448402050934327   F   F   F
 26.6211019143756005 21.4137297044158466 17.5448402050934327   F   F   F
 33.0690732583756031 21.4137297044158466 17.5448402050934327   F   F   F
 39.5170446023755915 21.4137297044158466 17.5448402050934327   F   F   F
 45.9650159463756012 21.4137297044158466 17.5448402050934327   F   F   F
 52.4129872903755967 21.4137297044158466 17.5448402050934327   F   F   F
 51.2059738343413997 36.7482826629003867 11.6694502797732387   F   F   F
 57.6539451783414023 36.7482826629003867 11.6694502797732387   F   F   F
  4.7389851237542686  5.8404637154923318 10.8100903574230109   F   F   F
 55.1314343546573937 48.0619786816263783 22.5595581479672909   T   T   T
 13.8698097699267802 12.2611804134481943 17.5557804298871964   F   F   F
 20.3177811139267810 12.2611804134481943 17.5557804298871964   F   F   F
 26.7657524579267800 12.2611804134481943 17.5557804298871964   F   F   F
 33.2137238019267755 12.2611804134481943 17.5557804298871964   F   F   F
 39.6616951459267710 12.2611804134481943 17.5557804298871964   F   F   F
 46.1096664899267665 12.2611804134481943 17.5557804298871964   F   F   F
 52.5576378339267762 12.2611804134481943 17.5557804298871964   F   F   F
  9.4851275226267795 18.3701224295481964 17.5557804298871964   F   F   F
 15.9330988666267803 18.3701224295481964 17.5557804298871964   F   F   F
 22.3810702106267811 18.3701224295481964 17.5557804298871964   F   F   F
 28.8290415546267802 18.3701224295481964 17.5557804298871964   F   F   F
  7.4218384259267793 12.2611804134481943 17.5557804298871964   F   F   F
 35.2770128986267792 18.3701224295481964 17.5557804298871964   F   F   F
 48.1729555866267773 18.3701224295481964 17.5557804298871964   F   F   F
 54.6209269306267799 18.3701224295481964 17.5557804298871964   F   F   F
 11.5484166193267779 24.4790644456481914 17.5557804298871964   F   F   F
 17.9963879633267787 24.4790644456481914 17.5557804298871964   F   F   F
 24.4443593073267813 24.4790644456481914 17.5557804298871964   F   F   F
 30.8923306513267875 24.4790644456481914 17.5557804298871964   F   F   F
 37.3403019953267759 24.4790644456481914 17.5557804298871964   F   F   F
 43.7882733393267785 24.4790644456481914 17.5557804298871964   F   F   F
 50.2362446833267740 24.4790644456481914 17.5557804298871964   F   F   F
 56.6842160273267766 24.4790644456481914 17.5557804298871964   F   F   F
 13.6117057160267780 30.5880064617481935 17.5557804298871964   F   F   F
 41.7249842426267818 18.3701224295481964 17.5557804298871964   F   F   F
 50.4943487372267796  6.1522383973481931 17.5557804298871964   F   F   F
 44.0463773932267770  6.1522383973481931 17.5557804298871964   F   F   F
 37.5984060492267815  6.1522383973481931 17.5557804298871964   F   F   F
 39.2684806931103623 39.7516694638054702 13.7775523580810564   F   F   F
 45.7164520371103507 39.7516694638054702 13.7775523580810564   F   F   F
 52.1644233811103533 39.7516694638054702 13.7775523580810564   F   F   F
 58.6123947251103488 39.7516694638054702 13.7775523580810564   F   F   F
 15.5398844138103520 45.8606114799054723 13.7775523580810564   F   F   F
 21.9878557578103511 45.8606114799054723 13.7775523580810564   F   F   F
 28.4358271018103537 45.8606114799054723 13.7775523580810564   F   F   F
 34.8837984458103634 45.8606114799054723 13.7775523580810564   F   F   F
 41.3317697898103518 45.8606114799054723 13.7775523580810564   F   F   F
 47.7797411338103544 45.8606114799054723 13.7775523580810564   F   F   F
 54.2277124778103641 45.8606114799054723 13.7775523580810564   F   F   F
 60.6756838218103596 45.8606114799054723 13.7775523580810564   F   F   F
  3.2952602325267786  0.0432963812481926 17.5557804298871964   F   F   F
  9.7432315765267798  0.0432963812481926 17.5557804298871964   F   F   F
 16.1912029205267807  0.0432963812481926 17.5557804298871964   F   F   F
 22.6391742645267797  0.0432963812481926 17.5557804298871964   F   F   F
 29.0871456085267788  0.0432963812481926 17.5557804298871964   F   F   F
 35.5351169525267778  0.0432963812481926 17.5557804298871964   F   F   F
 41.9830882965267733  0.0432963812481926 17.5557804298871964   F   F   F
 48.4310596405267759  0.0432963812481926 17.5557804298871964   F   F   F
  5.3585493292267783  6.1522383973481931 17.5557804298871964   F   F   F
 11.8065206732267800  6.1522383973481931 17.5557804298871964   F   F   F
 18.2544920172267808  6.1522383973481931 17.5557804298871964   F   F   F
 24.7024633612267799  6.1522383973481931 17.5557804298871964   F   F   F
 31.1504347052267789  6.1522383973481931 17.5557804298871964   F   F   F
 20.0596770600267789 30.5880064617481935 17.5557804298871964   F   F   F
 32.8205093491103526 39.7516694638054702 13.7775523580810564   F   F   F
 26.5076484040267815 30.5880064617481935 17.5557804298871964   F   F   F
 39.4035910920267796 30.5880064617481935 17.5557804298871964   F   F   F
 29.0288418903027114  9.1070652249110129 21.3139428069349250   T   T   T
 35.4624345419754547  8.9416194521933487 21.2909137321645190   T   T   T
 48.1466836451770916  9.2236286910773035 21.2975099936918895   T   T   T
  5.3501016180364873 15.0299153125874021 21.4135630153386032   T   T   T
 11.4538237046531250 15.5849613087189880 21.1752702360762974   T   T   T
 18.1197268326127165 15.4240660285732414 21.2759419717516458   T   T   T
 24.8327898881872819 15.2843205260791812 21.3520790008162678   T   T   T
 37.6540007232277958 15.2005553774290796 21.3531509379197004   T   T   T
 50.3663016978368674 15.1298573820268896 21.1933441963788916   T   T   T
 13.6878073341253099 21.6994550254915985 21.0666091946780440   T   T   T
 26.5546868499090785 21.5703544184033262 21.2651379627420560   T   T   T
 22.6307722810641287  9.1680491006241418 21.3727453686010023   T   T   T
 33.1674099677458116 21.0557490433686212 21.4143706247468231   T   T   T
 45.8965680072513109 21.3002752074055515 21.2431213890581247   T   T   T
 52.6534780504049209 21.2954622928579909 21.3331582258952395   T   T   T
 15.9482012656964383 27.6348680918185501 21.0612279710490604   T   T   T
 41.4812627027090670 27.7299280849618874 21.2185974087551088   T   T   T
 48.1214163387124216 27.4927888890601650 21.3112727106030988   T   T   T
 17.9084890043159035 33.7102497759738782 21.2704122664676731   T   T   T
 24.4803210983048807 33.4335110337607659 21.2613219831618672   T   T   T
 30.8174234479653286 33.5734146140588123 21.3056185646391576   T   T   T
 37.0709115379804288 33.6503576152013650 21.1927073864205120   T   T   T
 43.7999142079226047 33.6504633542987719 21.3413010238685317   T   T   T
 50.3199057515101771 33.3983939035204642 21.2676485444445582   T   T   T
 39.4001370148198902 21.4892721878555619 21.3827594980546962   T   T   T
 15.9792079748317146  9.4487245543654161 21.2410233137432094   T   T   T
  9.7934195614844981  9.0850822835843505 21.4032887395483691   T   T   T
 46.2392687204785844  3.1274140350203297 21.3342202745157223   T   T   T
 45.8515624360267822 30.5880064617481935 17.5557804298871964   F   F   F
 52.2995337800267777 30.5880064617481935 17.5557804298871964   F   F   F
 58.7475051240267803 30.5880064617481935 17.5557804298871964   F   F   F
 15.6749948127267782 36.6969484778481956 17.5557804298871964   F   F   F
 22.1229661567267790 36.6969484778481956 17.5557804298871964   F   F   F
 28.5709375007267816 36.6969484778481956 17.5557804298871964   F   F   F
 35.0189088447267878 36.6969484778481956 17.5557804298871964   F   F   F
 41.4668801887267762 36.6969484778481956 17.5557804298871964   F   F   F
 61.6831507855066477 48.2506577136689145 22.5408659505987892   T   T   T
 54.3628228767267743 36.6969484778481956 17.5557804298871964   F   F   F
 60.8107942207267769 36.6969484778481956 17.5557804298871964   F   F   F
 17.7382839094267837 42.8058904939481906 17.5557804298871964   F   F   F
 24.1862552534267792 42.8058904939481906 17.5557804298871964   F   F   F
 30.6342265974267818 42.8058904939481906 17.5557804298871964   F   F   F
 37.0821979414267773 42.8058904939481906 17.5557804298871964   F   F   F
 43.5301692854267870 42.8058904939481906 17.5557804298871964   F   F   F
 49.9781406294267896 42.8058904939481906 17.5557804298871964   F   F   F
 56.4261119734267851 42.8058904939481906 17.5557804298871964   F   F   F
 62.8740833174267806 42.8058904939481906 17.5557804298871964   F   F   F
  1.1474910730595902  3.0381857022542262 21.2822744548477552   T   T   T
  7.5188131662901494  3.0249551430442607 21.2215430530681459   T   T   T
 13.9709781332082983  2.8565734091977255 21.3158813882940699   T   T   T
 20.4772291558510418  3.0641572280282108 21.3476597954336960   T   T   T
 26.8632808514843759  3.0231285294447128 21.3350243565113296   T   T   T
 39.8491337373279535  2.9201362224869096 21.3458684408091131   T   T   T
 32.9556197480267770 30.5880064617481935 17.5557804298871964   F   F   F
 26.3725380051103535 39.7516694638054702 13.7775523580810564   F   F   F
 19.9245666611103509 39.7516694638054702 13.7775523580810564   F   F   F
 13.4765953171103519 39.7516694638054702 13.7775523580810564   F   F   F
 49.6166804778542598 24.1672897637923327 10.8100903574230109   F   F   F
 56.0646518218542695 24.1672897637923327 10.8100903574230109   F   F   F
 12.9921415105542710 30.2762317798923348 10.8100903574230109   F   F   F
 19.4401128545542754 30.2762317798923348 10.8100903574230109   F   F   F
 25.8880841985542745 30.2762317798923348 10.8100903574230109   F   F   F
 32.3360555425542842 30.2762317798923348 10.8100903574230109   F   F   F
 38.7840268865542726 30.2762317798923348 10.8100903574230109   F   F   F
 45.2319982305542752 30.2762317798923348 10.8100903574230109   F   F   F
 51.6799695745542707 30.2762317798923348 10.8100903574230109   F   F   F
 58.1279409185542733 30.2762317798923348 10.8100903574230109   F   F   F
 15.0554306072542712 36.3851737959923369 10.8100903574230109   F   F   F
 43.1687091338542643 24.1672897637923327 10.8100903574230109   F   F   F
 21.5034019512542756 36.3851737959923369 10.8100903574230109   F   F   F
 34.3993446392542737 36.3851737959923369 10.8100903574230109   F   F   F
 40.8473159832542763 36.3851737959923369 10.8100903574230109   F   F   F
 47.2952873272542860 36.3851737959923369 10.8100903574230109   F   F   F
 53.7432586712542815 36.3851737959923369 10.8100903574230109   F   F   F
 60.1912300152542770 36.3851737959923369 10.8100903574230109   F   F   F
 17.1187197039542696 42.4941158120923390 10.8100903574230109   F   F   F
 23.5666910479542757 42.4941158120923390 10.8100903574230109   F   F   F
 30.0146623919542748 42.4941158120923390 10.8100903574230109   F   F   F
 36.4626337359542845 42.4941158120923390 10.8100903574230109   F   F   F
 42.9106050799542729 42.4941158120923390 10.8100903574230109   F   F   F
 49.3585764239542755 42.4941158120923390 10.8100903574230109   F   F   F
 27.9513732952542746 36.3851737959923369 10.8100903574230109   F   F   F
 36.7207377898542688 24.1672897637923327 10.8100903574230109   F   F   F
 30.2727664458542733 24.1672897637923327 10.8100903574230109   F   F   F
 23.8247951018542743 24.1672897637923327 10.8100903574230109   F   F   F
 11.1869564677542748  5.8404637154923318 10.8100903574230109   F   F   F
 17.6349278117542738  5.8404637154923318 10.8100903574230109   F   F   F
 24.0828991557542729  5.8404637154923318 10.8100903574230109   F   F   F
 30.5308704997542719  5.8404637154923318 10.8100903574230109   F   F   F
 36.9788418437542745  5.8404637154923318 10.8100903574230109   F   F   F
 43.4268131877542700  5.8404637154923318 10.8100903574230109   F   F   F
 49.8747845317542726  5.8404637154923318 10.8100903574230109   F   F   F
  6.8022742204542697 11.9494057315923321 10.8100903574230109   F   F   F
 13.2502455644542749 11.9494057315923321 10.8100903574230109   F   F   F
 19.6982169084542740 11.9494057315923321 10.8100903574230109   F   F   F
 26.1461882524542730 11.9494057315923321 10.8100903574230109   F   F   F
 32.5941595964542756 11.9494057315923321 10.8100903574230109   F   F   F
 39.0421309404542853 11.9494057315923321 10.8100903574230109   F   F   F
 45.4901022844542808 11.9494057315923321 10.8100903574230109   F   F   F
 51.9380736284542763 11.9494057315923321 10.8100903574230109   F   F   F
  8.8655633171542672 18.0583477476923271 10.8100903574230109   F   F   F
 15.3135346611542733 18.0583477476923271 10.8100903574230109   F   F   F
 21.7615060051542706 18.0583477476923271 10.8100903574230109   F   F   F
 28.2094773491542696 18.0583477476923271 10.8100903574230109   F   F   F
 34.6574486931542722 18.0583477476923271 10.8100903574230109   F   F   F
 41.1054200371542748 18.0583477476923271 10.8100903574230109   F   F   F
 47.5533913811542703 18.0583477476923271 10.8100903574230109   F   F   F
 54.0013627251542729 18.0583477476923271 10.8100903574230109   F   F   F
 10.9288524138542691 24.1672897637923327 10.8100903574230109   F   F   F
 17.3768237578542752 24.1672897637923327 10.8100903574230109   F   F   F
 55.8065477679542710 42.4941158120923390 10.8100903574230109   F   F   F
 62.2545191119542736 42.4941158120923390 10.8100903574230109   F   F   F
 19.1820088006542697 48.6030578281923340 10.8100903574230109   F   F   F
 25.6299801446542759 48.6030578281923340 10.8100903574230109   F   F   F
 50.3592383383103481 15.3159013994054689 13.7775523580810564   F   F   F
  7.2867280270103514 21.4248434155054710 13.7775523580810564   F   F   F
 13.7346993710103504 21.4248434155054710 13.7775523580810564   F   F   F
 20.1826707150103530 21.4248434155054710 13.7775523580810564   F   F   F
 26.6306420590103521 21.4248434155054710 13.7775523580810564   F   F   F
 33.0786134030103511 21.4248434155054710 13.7775523580810564   F   F   F
 39.5265847470103537 21.4248434155054710 13.7775523580810564   F   F   F
 45.9745560910103563 21.4248434155054710 13.7775523580810564   F   F   F
 52.4225274350103518 21.4248434155054710 13.7775523580810564   F   F   F
  9.3500171237103515 27.5337854316054695 13.7775523580810564   F   F   F
 15.7979884677103506 27.5337854316054695 13.7775523580810564   F   F   F
 22.2459598117103532 27.5337854316054695 13.7775523580810564   F   F   F
 28.6939311557103522 27.5337854316054695 13.7775523580810564   F   F   F
 35.1419024997103620 27.5337854316054695 13.7775523580810564   F   F   F
 41.5898738437103503 27.5337854316054695 13.7775523580810564   F   F   F
 48.0378451877103529 27.5337854316054695 13.7775523580810564   F   F   F
 54.4858165317103484 27.5337854316054695 13.7775523580810564   F   F   F
 11.4133062204103499 33.6427274477054681 13.7775523580810564   F   F   F
 17.8612775644103507 33.6427274477054681 13.7775523580810564   F   F   F
 24.3092489084103569 33.6427274477054681 13.7775523580810564   F   F   F
 30.7572202524103524 33.6427274477054681 13.7775523580810564   F   F   F
 37.2051915964103586 33.6427274477054681 13.7775523580810564   F   F   F
 43.6531629404103541 33.6427274477054681 13.7775523580810564   F   F   F
 50.1011342844103567 33.6427274477054681 13.7775523580810564   F   F   F
 56.5491056284103522 33.6427274477054681 13.7775523580810564   F   F   F
 43.9112669943103526 15.3159013994054689 13.7775523580810564   F   F   F
 56.6496595743745246 33.6053887201506853 21.2589218849641881   T   T   T
 37.4632956503103500 15.3159013994054689 13.7775523580810564   F   F   F
 24.5673529623103519 15.3159013994054689 13.7775523580810564   F   F   F
 32.0779514886542785 48.6030578281923340 10.8100903574230109   F   F   F
 38.5259228326542740 48.6030578281923340 10.8100903574230109   F   F   F
 44.9738941766542766 48.6030578281923340 10.8100903574230109   F   F   F
 51.4218655206542792 48.6030578281923340 10.8100903574230109   F   F   F
 57.8698368646542747 48.6030578281923340 10.8100903574230109   F   F   F
 64.3178082086542702 48.6030578281923340 10.8100903574230109   F   F   F
  1.0968607369103509  3.0980173672054669 13.7775523580810564   F   F   F
  7.5448320809103500  3.0980173672054669 13.7775523580810564   F   F   F
 13.9928034249103508  3.0980173672054669 13.7775523580810564   F   F   F
 20.4407747689103516  3.0980173672054669 13.7775523580810564   F   F   F
 26.8887461129103507  3.0980173672054669 13.7775523580810564   F   F   F
 33.3367174569103497  3.0980173672054669 13.7775523580810564   F   F   F
 39.7846888009103523  3.0980173672054669 13.7775523580810564   F   F   F
 46.2326601449103478  3.0980173672054669 13.7775523580810564   F   F   F
  3.1601498336103511  9.2069593833054668 13.7775523580810564   F   F   F
  9.6081211776103501  9.2069593833054668 13.7775523580810564   F   F   F
 16.0560925216103527  9.2069593833054668 13.7775523580810564   F   F   F
 22.5040638656103518  9.2069593833054668 13.7775523580810564   F   F   F
 28.9520352096103508  9.2069593833054668 13.7775523580810564   F   F   F
 35.4000065536103605  9.2069593833054668 13.7775523580810564   F   F   F
 41.8479778976103631  9.2069593833054668 13.7775523580810564   F   F   F
 48.2959492416103586  9.2069593833054668 13.7775523580810564   F   F   F
  5.2234389303103512 15.3159013994054689 13.7775523580810564   F   F   F
 11.6714102743103503 15.3159013994054689 13.7775523580810564   F   F   F
 18.1193816183103529 15.3159013994054689 13.7775523580810564   F   F   F
 31.0153243063103510 15.3159013994054689 13.7775523580810564   F   F   F
 13.3502850233039467 39.6036028840073087 21.2430376334785969   T   T   T
 47.9148515327267788 36.6969484778481956 17.5557804298871964   F   F   F
 32.7586157264811106 39.9626226847460799 21.0746929454677883   T   T   T
 36.6841512914373027  3.0687298822138209 19.4315427314189257   T   T   T
 42.9888641519068173  3.0525259645855876 19.4006477218200466   T   T   T
 49.4456373651271406  3.1358115233995734 19.4394726128829731   T   T   T
  6.5373366835305635  9.2117449438529579 19.4627789868219487   T   T   T
 12.8010549707266481  9.2832980268125560 19.4187750620475512   T   T   T
 19.3103781399048380  9.2044244015024663 19.4492757455326100   T   T   T
 25.7556856735638391  9.3232323120066116 19.4577843311209975   T   T   T
 32.2429243852807375  9.1253246480079948 19.4357037543008921   T   T   T
 38.6235102670591246  9.2709414252404212 19.4367993807470363   T   T   T
 45.0400588547147009  9.1159104541906597 19.3028178738995777   T   T   T
 51.4176439249887380  9.2734588844273649 19.4305775493114652   T   T   T
 30.0587130064853163  3.1675657265875583 19.4400723851313941   T   T   T
  8.3393445117155185 15.3559434667280446 19.3523374823971537   T   T   T
 21.4150622809021733 15.3233206536527558 19.4659469494691137   T   T   T
 27.9300940209045336 15.4178380282127865 19.4967256638349085   T   T   T
 26.4898577067881895 39.7204202849989372 21.3697954298335340   T   T   T
 40.7202551477904464 15.3593094074929422 19.4578016092963466   T   T   T
 47.0374993889293052 15.3472370670631850 19.3771405600660671   T   T   T
 23.3077400381456457 21.4151806526580302 19.3447133470501988   T   T   T
 29.8670567977733796 21.4713737523211776 19.4482067668715821   T   T   T
 36.2335599077023573 21.4379275890843921 19.3726919195092435   T   T   T
 42.7163873768264963 21.4655708765281226 19.4366601024412908   T   T   T
 49.2492327571775164 21.4404428114683547 19.4626183928740346   T   T   T
 55.6998252664384950 21.5300971676829853 19.4721962781130244   T   T   T
 14.9194786547582012 15.3659770189442977 19.4545370040408301   T   T   T
 23.6317289730734714  3.1722239460548503 19.4147288554614725   T   T   T
 17.2128856575148390  3.1077693044094299 19.4360878241519934   T   T   T
 10.7693112848405015  3.1140716835537856 19.4212572287001244   T   T   T
 10.3877200117868966 30.5880064617481935 15.6367268423086472   F   F   F
 16.8356913557868957 30.5880064617481935 15.6367268423086472   F   F   F
 23.2836626997869018 30.5880064617481935 15.6367268423086472   F   F   F
 29.7316340437868973 30.5880064617481935 15.6367268423086472   F   F   F
 36.1796053877868999 30.5880064617481935 15.6367268423086472   F   F   F
 42.6275767317868954 30.5880064617481935 15.6367268423086472   F   F   F
 49.0755480757868980 30.5880064617481935 15.6367268423086472   F   F   F
 55.5235194197869006 30.5880064617481935 15.6367268423086472   F   F   F
 12.4510091084868968 36.6969484778481956 15.6367268423086472   F   F   F
 18.8989804524868958 36.6969484778481956 15.6367268423086472   F   F   F
 25.3469517964869020 36.6969484778481956 15.6367268423086472   F   F   F
 31.7949231404868975 36.6969484778481956 15.6367268423086472   F   F   F
 38.2428944844868965 36.6969484778481956 15.6367268423086472   F   F   F
 44.6908658284868920 36.6969484778481956 15.6367268423086472   F   F   F
 51.1388371724868946 36.6969484778481956 15.6367268423086472   F   F   F
 57.5868085164868972 36.6969484778481956 15.6367268423086472   F   F   F
 14.5142982051868952 42.8058904939481906 15.6367268423086472   F   F   F
 20.9622695491868960 42.8058904939481906 15.6367268423086472   F   F   F
 27.4102408931869022 42.8058904939481906 15.6367268423086472   F   F   F
 33.8582122371869048 42.8058904939481906 15.6367268423086472   F   F   F
 40.3061835811869003 42.8058904939481906 15.6367268423086472   F   F   F
 46.7541549251868958 42.8058904939481906 15.6367268423086472   F   F   F
 53.2021262691869055 42.8058904939481906 15.6367268423086472   F   F   F
 59.6500976131869010 42.8058904939481906 15.6367268423086472   F   F   F
  4.2568198747282437  3.1255026037537932 19.4020462656484369   T   T   T
 12.5205340931808529 27.6333136342393040 19.4189581063867394   T   T   T
 53.4602303230868969 24.4790644456481914 15.6367268423086472   F   F   F
 25.4871658892588364 27.5629980658552896 19.4332876910814711   T   T   T
 44.8187202141899590 27.5454714584070963 19.4147106080407355   T   T   T
 11.7392466925800392 18.4500821164883213 21.7081385338894179   T   T   T
 18.9693267572118849 17.8683413181101471 22.3601857302819909   T   T   T
 25.4130300564014107 17.6547915633704626 22.4539980801887822   T   T   T
 31.4464593512586958 17.0512343870315881 21.7582533997623777   T   T   T
 51.3239192465756204 17.5333474678471113 21.8818812509773117   T   T   T
 20.4807389702411768 23.4582996347074904 22.5566860445570434   T   T   T
 27.2476232324409260 24.4449520062547982 22.1273563314025097   T   T   T
 39.8821886099066347 24.6129598564434744 22.2002668246699990   T   T   T
 46.8400413401302700 24.0595827801087161 22.6013128695746843   T   T   T
 53.4826073780119486 23.7780473422095149 22.4898757014238022   T   T   T
 16.3446215407024376 30.3544332119267288 22.1246496400849360   T   T   T
 36.2236034999643763 11.4309214879919967 22.1268188800159713   T   T   T
 42.4411372832540295 30.0734778734395292 22.2555998199110796   T   T   T
 18.6588432093728684 36.1128201929818289 22.3441908636567810   T   T   T
 25.3255723014914231 35.9239683929215445 22.2321456779116424   T   T   T
 37.7839226761858455 36.3367412704603794 22.3488244927227129   T   T   T
 44.3997988776587817 36.0715359865110443 22.4505554793340565   T   T   T
 51.0783042737517832 35.9762128359982043 22.4146679944769964   T   T   T
 20.0241682369119367 40.8303625251805045 21.6781189523073223   T   T   T
 27.4223250424457241 42.1519865663666238 22.4253995801775403   T   T   T
 52.9224014669224232 42.1043851600688797 22.4862098508226040   T   T   T
 58.6651140312223518 40.1214513890800220 21.4993997360289875   T   T   T
 28.9019684636015874 47.8844040334330003 22.5965125785161085   T   T   T
 35.7505078162142453 48.2739895681050584 22.2745909773155866   T   T   T
 61.2742848501680371 29.0900950078243348 21.7096376877078043   T   T   T
 23.5784502476700055 11.5360996091018553 22.3916050598990957   T   T   T
 16.6600317994657416 11.8969853838479995 22.3075244415987832   T   T   T
 46.7564180419226076  6.0721063281822660 22.4556896293283152   T   T   T
 51.3307109221663893 27.6003394980402454 19.5078777856574419   T   T   T
 57.6580443054487546 27.5787715968106042 19.3958764377890667   T   T   T
 14.6344563908901506 33.7090290605172527 19.3842236586472545   T   T   T
 21.1665453214332189 33.6057882426263603 19.4543411610943231   T   T   T
 27.5676510584625767 33.7067171148368843 19.4436990225987216   T   T   T
 33.9708598012282863 33.6436968171568793 19.4225477840545437   T   T   T
 40.4440979475763385 33.7140507871642328 19.4537283784466339   T   T   T
 46.9785224414147820 33.6178991122649791 19.4707385867427760   T   T   T
 53.3642269266668023 33.6899893273604718 19.4387142015448369   T   T   T
 59.7868085009288421 33.7326883279298428 19.4796161872996372   T   T   T
 16.6851483119601554 39.7561964494615765 19.4057985544185634   T   T   T
 23.1292325364301945 39.8383057177598801 19.4704712655158758   T   T   T
 29.5361874129899959 39.8205138604066207 19.3804131200183924   T   T   T
 42.5098389189746726 39.8046415424664062 19.4512777355375306   T   T   T
 48.9650013684611380 39.7692744567133474 19.4523948114294889   T   T   T
 55.2522923000213595 39.7714551353930972 19.3115455950053807   T   T   T
 18.7773845415610801 45.8741126106659394 19.4383565011947894   T   T   T
 31.6537201755413413 45.9035284897627065 19.4234066723104633   T   T   T
 38.1943271947026020 45.8407614297283459 19.4616793068590042   T   T   T
 44.5111586873080114 45.9125939650757786 19.3916458620605425   T   T   T
 50.9980737688579211 45.8859032586767128 19.4430799076605680   T   T   T
 57.5552945557509332 45.8276557353297065 19.4517938368524241   T   T   T
 63.9433143183614661 45.9229684419222295 19.4369887315178005   T   T   T
  8.4208671161186537  5.8846720238019072 22.6759270243131965   T   T   T
 21.2906912787959861  5.4363992042048839 22.2710445912675823   T   T   T
 38.3389008319887168 27.5839523498016526 19.4422083691375320   T   T   T
 47.0122589790868943 24.4790644456481914 15.6367268423086472   F   F   F
 34.2321992479086106 15.3013053697846786 19.4310273326940930   T   T   T
 34.1163162910868962 24.4790644456481914 15.6367268423086472   F   F   F
 27.7873350632696940 15.2850796243687928 11.8524376351144216   F   F   F
 34.2353064072696824 15.2850796243687928 11.8524376351144216   F   F   F
 40.6832777512696921 15.2850796243687928 11.8524376351144216   F   F   F
 47.1312490952696876 15.2850796243687928 11.8524376351144216   F   F   F
 53.5792204392696902 15.2850796243687928 11.8524376351144216   F   F   F
 10.5067101279696935 21.3940216404687931 11.8524376351144216   F   F   F
 16.9546814719696926 21.3940216404687931 11.8524376351144216   F   F   F
 23.4026528159696952 21.3940216404687931 11.8524376351144216   F   F   F
 29.8506241599696942 21.3940216404687931 11.8524376351144216   F   F   F
 36.2985955039696933 21.3940216404687931 11.8524376351144216   F   F   F
 42.7465668479696959 21.3940216404687931 11.8524376351144216   F   F   F
 21.3393637192696950 15.2850796243687928 11.8524376351144216   F   F   F
 49.1945381919696914 21.3940216404687931 11.8524376351144216   F   F   F
 12.5699992246696937 27.5029636565687952 11.8524376351144216   F   F   F
 19.0179705686696927 27.5029636565687952 11.8524376351144216   F   F   F
 25.4659419126696953 27.5029636565687952 11.8524376351144216   F   F   F
 31.9139132566696944 27.5029636565687952 11.8524376351144216   F   F   F
 38.3618846006696828 27.5029636565687952 11.8524376351144216   F   F   F
 44.8098559446696854 27.5029636565687952 11.8524376351144216   F   F   F
 51.2578272886696809 27.5029636565687952 11.8524376351144216   F   F   F
 57.7057986326696906 27.5029636565687952 11.8524376351144216   F   F   F
 14.6332883213696938 33.6119056726687973 11.8524376351144216   F   F   F
 21.0812596653696929 33.6119056726687973 11.8524376351144216   F   F   F
 27.5292310093696955 33.6119056726687973 11.8524376351144216   F   F   F
 55.6425095359696940 21.3940216404687931 11.8524376351144216   F   F   F
 14.8913923752696942 15.2850796243687928 11.8524376351144216   F   F   F
  8.4434210312696933 15.2850796243687928 11.8524376351144216   F   F   F
 51.5159313425696936  9.1761376082687942 11.8524376351144216   F   F   F
 39.1604204824777895 39.8408591283577351 21.2440924729967158   T   T   T
 45.7556070967807003 39.6632737376382778 21.3383591625165820   T   T   T
 52.1848948741550771 39.7574689751402275 21.3916016892172358   T   T   T
 15.6395189190773110 45.9015028481907805 21.2857505642610292   T   T   T
 22.1597711160016324 45.9067756214569869 21.0657484977638383   T   T   T
 35.0260640571241453 45.7164211529013329 21.2331120243791247   T   T   T
 41.5589050997421481 45.6267772730941132 21.3159300463506902   T   T   T
 47.7436825559217581 45.9768733375575138 21.2369490628417985   T   T   T
 54.3842345785146861 45.8080525390412419 21.3462450335384162   T   T   T
 40.5642876350868917 24.4790644456481914 15.6367268423086472   F   F   F
  4.3168428378696939  3.0671955921687934 11.8524376351144216   F   F   F
 10.7648141818696939  3.0671955921687934 11.8524376351144216   F   F   F
 17.2127855258696947  3.0671955921687934 11.8524376351144216   F   F   F
 23.6607568698696937  3.0671955921687934 11.8524376351144216   F   F   F
 30.1087282138696928  3.0671955921687934 11.8524376351144216   F   F   F
 36.5566995578696847  3.0671955921687934 11.8524376351144216   F   F   F
 43.0046709018696802  3.0671955921687934 11.8524376351144216   F   F   F
 49.4526422458696899  3.0671955921687934 11.8524376351144216   F   F   F
  6.3801319345696941  9.1761376082687942 11.8524376351144216   F   F   F
 12.8281032785696940  9.1761376082687942 11.8524376351144216   F   F   F
 19.2760746225696948  9.1761376082687942 11.8524376351144216   F   F   F
 25.7240459665696939  9.1761376082687942 11.8524376351144216   F   F   F
 32.1720173105696929  9.1761376082687942 11.8524376351144216   F   F   F
 38.6199886545696955  9.1761376082687942 11.8524376351144216   F   F   F
 45.0679599985696910  9.1761376082687942 11.8524376351144216   F   F   F
 33.9772023533696839 33.6119056726687973 11.8524376351144216   F   F   F
 40.4251736973696936 33.6119056726687973 11.8524376351144216   F   F   F
 60.9798667515889861 45.6040597109273094 21.2435663641065773   T   T   T
 53.3211163853696917 33.6119056726687973 11.8524376351144216   F   F   F
 27.9264490009868993  6.1522383973481931 15.6367268423086472   F   F   F
 34.3744203449868948  6.1522383973481931 15.6367268423086472   F   F   F
 40.8223916889868974  6.1522383973481931 15.6367268423086472   F   F   F
 47.2703630329869000  6.1522383973481931 15.6367268423086472   F   F   F
  4.1978527216868970 12.2611804134481943 15.6367268423086472   F   F   F
 10.6458240656868970 12.2611804134481943 15.6367268423086472   F   F   F
 17.0937954096868978 12.2611804134481943 15.6367268423086472   F   F   F
 23.5417667536868969 12.2611804134481943 15.6367268423086472   F   F   F
 29.9897380976868995 12.2611804134481943 15.6367268423086472   F   F   F
 36.4377094416868914 12.2611804134481943 15.6367268423086472   F   F   F
 42.8856807856868869 12.2611804134481943 15.6367268423086472   F   F   F
 21.4784776569868967  6.1522383973481931 15.6367268423086472   F   F   F
 49.3336521296868966 12.2611804134481943 15.6367268423086472   F   F   F
 12.7091131623868971 18.3701224295481964 15.6367268423086472   F   F   F
 19.1570845063868980 18.3701224295481964 15.6367268423086472   F   F   F
 25.6050558503868970 18.3701224295481964 15.6367268423086472   F   F   F
 32.0530271943868996 18.3701224295481964 15.6367268423086472   F   F   F
 38.5009985383868951 18.3701224295481964 15.6367268423086472   F   F   F
 44.9489698823868977 18.3701224295481964 15.6367268423086472   F   F   F
  8.3244309150868965 24.4790644456481914 15.6367268423086472   F   F   F
 14.7724022590868973 24.4790644456481914 15.6367268423086472   F   F   F
 21.2203736030869017 24.4790644456481914 15.6367268423086472   F   F   F
 27.6683449470868972 24.4790644456481914 15.6367268423086472   F   F   F
 46.8731450413696962 33.6119056726687973 11.8524376351144216   F   F   F
  6.2611418183868972 18.3701224295481964 15.6367268423086472   F   F   F
 15.0305063129868977  6.1522383973481931 15.6367268423086472   F   F   F
 51.3969412263869003 18.3701224295481964 15.6367268423086472   F   F   F
  2.1345636249868964  6.1522383973481931 15.6367268423086472   F   F   F
 59.7690877293696943 33.6119056726687973 11.8524376351144216   F   F   F
  8.5825349689868968  6.1522383973481931 15.6367268423086472   F   F   F
 16.6965774180696940 39.7208476887687922 11.8524376351144216   F   F   F
 23.1445487620696930 39.7208476887687922 11.8524376351144216   F   F   F
 36.0404914500696947 39.7208476887687922 11.8524376351144216   F   F   F
 42.4884627940696902 39.7208476887687922 11.8524376351144216   F   F   F
 48.9364341380696928 39.7208476887687922 11.8524376351144216   F   F   F
 55.3844054820696883 39.7208476887687922 11.8524376351144216   F   F   F
 61.8323768260696909 39.7208476887687922 11.8524376351144216   F   F   F
 18.7598665147696941 45.8297897048687943 11.8524376351144216   F   F   F
 25.2078378587696932 45.8297897048687943 11.8524376351144216   F   F   F
 31.6558092027696958 45.8297897048687943 11.8524376351144216   F   F   F
 38.1037805467696842 45.8297897048687943 11.8524376351144216   F   F   F
 29.5925201060696921 39.7208476887687922 11.8524376351144216   F   F   F
 50.9997232347696965 45.8297897048687943 11.8524376351144216   F   F   F
 44.5517518907696939 45.8297897048687943 11.8524376351144216   F   F   F
 32.3111312482868911  0.0432963812481926 15.6367268423086472   F   F   F
 19.4151885602868965  0.0432963812481926 15.6367268423086472   F   F   F
 12.9672172162868975  0.0432963812481926 15.6367268423086472   F   F   F
 25.8631599042868991  0.0432963812481926 15.6367268423086472   F   F   F
  0.0712745282868965  0.0432963812481926 15.6367268423086472   F   F   F
 63.8956659227696946 45.8297897048687943 11.8524376351144216   F   F   F
 45.2070739362868963  0.0432963812481926 15.6367268423086472   F   F   F
 57.4476945787696920 45.8297897048687943 11.8524376351144216   F   F   F
  6.5192458722868967  0.0432963812481926 15.6367268423086472   F   F   F
 38.7591025922868937  0.0432963812481926 15.6367268423086472   F   F   F
 51.6494470214912837 42.8902988577553330 23.5285140873633942   T   T   T
 58.6659196160072298 41.8056882530533684 22.5694061485345401   T   T   T
 17.6349278117542738  5.8404637154923318  9.2264274660354193   F   F   F
 28.1151977661711570 49.1763730951864630 23.7311287343466653   T   T   T
 34.5739939897961293 49.0269581107636867 23.4504474600249111   T   T   T
 53.8390232677192131 48.7859841228073279 23.6397216913844197   T   T   T
 60.4610820280062313 48.9145831920384211 23.7184796635936053   T   T   T
  4.7389851237542686  5.8404637154923318  9.2264274660354193   F   F   F
 11.1869564677542748  5.8404637154923318  9.2264274660354193   F   F   F
 49.8747845317542726  5.8404637154923318  9.2264274660354193   F   F   F
 30.5308704997542719  5.8404637154923318  9.2264274660354193   F   F   F
 36.9788418437542745  5.8404637154923318  9.2264274660354193   F   F   F
 43.4268131877542700  5.8404637154923318  9.2264274660354193   F   F   F
  6.8022742204542697 11.9494057315923321  9.2264274660354193   F   F   F
 13.2502455644542749 11.9494057315923321  9.2264274660354193   F   F   F
 19.6982169084542740 11.9494057315923321  9.2264274660354193   F   F   F
 26.1461882524542730 11.9494057315923321  9.2264274660354193   F   F   F
 26.1210845344449609 42.9349813102356350 23.4406265128972926   T   T   T
 32.5941595964542756 11.9494057315923321  9.2264274660354193   F   F   F
 39.0421309404542853 11.9494057315923321  9.2264274660354193   F   F   F
 24.0828991557542729  5.8404637154923318  9.2264274660354193   F   F   F
 19.8203358629114916 42.5987627389568786 22.4772150962177051   T   T   T
 26.0322125732873317 25.6228792498872693 22.8870661707878220   T   T   T
 43.1828691063754846 36.8240548066032218 23.5825756074249995   T   T   T
 45.5090790121841806  7.2077730781605132 23.1949361634694853   T   T   T
 45.4901022844542808 11.9494057315923321  9.2264274660354193   F   F   F
 15.5349581918420458 12.9536747376617853 23.2807399096636125   T   T   T
 22.3903701313077441 12.4527475323849934 23.4338145247611571   T   T   T
 34.9980887603419646 12.2585967330260175 23.2090458715723145   T   T   T
 10.8760182658162528 19.5465474762136999 22.9696739105768692   T   T   T
 17.7546676679880449 18.7129213199148658 23.4273773030634977   T   T   T
 24.0910858204722622 18.3440439399640667 23.5237081772950063   T   T   T
 30.7756204049727273 18.5753277082071087 22.8271808341152251   T   T   T
 49.8698308988358079 36.6842739111679421 23.5928097214730457   T   T   T
 50.2729179178972885 18.6478033127447098 22.9213727021428113   T   T   T
 38.7472212817312567 25.8769777247303487 22.9525619858045395   T   T   T
 45.8085937939230732 25.0175561288994075 23.7560230755203712   T   T   T
 52.1716070121150608 24.4598815258932021 23.5734552009523561   T   T   T
 15.1263332710151985 31.4198607768514186 23.0794529250897824   T   T   T
 41.3576954531368912 31.1549038888002663 23.2524851616423760   T   T   T
 60.4452407552328879 29.9883041476069963 23.2349850411867784   T   T   T
 17.4221769531604238 36.7530124543187711 23.5267294538918925   T   T   T
 24.1069175565612177 36.7421572401914247 23.3281831596215490   T   T   T
 36.6222921359335700 37.1652991211646651 23.4799010761819424   T   T   T
 19.6760145301147062 24.8143514813100765 23.6593086850564731   T   T   T
 51.9380736284542763 11.9494057315923321  9.2264274660354193   F   F   F
 27.9513732952542746 36.3851737959923369  9.2264274660354193   F   F   F
 15.3135346611542733 18.0583477476923271  9.2264274660354193   F   F   F
 34.3993446392542737 36.3851737959923369  9.2264274660354193   F   F   F
 40.8473159832542763 36.3851737959923369  9.2264274660354193   F   F   F
 47.2952873272542860 36.3851737959923369  9.2264274660354193   F   F   F
 53.7432586712542815 36.3851737959923369  9.2264274660354193   F   F   F
 60.1912300152542770 36.3851737959923369  9.2264274660354193   F   F   F
 17.1187197039542696 42.4941158120923390  9.2264274660354193   F   F   F
 23.5666910479542757 42.4941158120923390  9.2264274660354193   F   F   F
 30.0146623919542748 42.4941158120923390  9.2264274660354193   F   F   F
 36.4626337359542845 42.4941158120923390  9.2264274660354193   F   F   F
 21.5034019512542756 36.3851737959923369  9.2264274660354193   F   F   F
 42.9106050799542729 42.4941158120923390  9.2264274660354193   F   F   F
 55.8065477679542710 42.4941158120923390  9.2264274660354193   F   F   F
 62.2545191119542736 42.4941158120923390  9.2264274660354193   F   F   F
 19.1820088006542697 48.6030578281923340  9.2264274660354193   F   F   F
 25.6299801446542759 48.6030578281923340  9.2264274660354193   F   F   F
 32.0779514886542785 48.6030578281923340  9.2264274660354193   F   F   F
 38.5259228326542740 48.6030578281923340  9.2264274660354193   F   F   F
 44.9738941766542766 48.6030578281923340  9.2264274660354193   F   F   F
 51.4218655206542792 48.6030578281923340  9.2264274660354193   F   F   F
 20.0664788434752666  6.3333905109120900 23.2852800256021197   T   T   T
 49.3585764239542755 42.4941158120923390  9.2264274660354193   F   F   F
  8.8655633171542672 18.0583477476923271  9.2264274660354193   F   F   F
 15.0554306072542712 36.3851737959923369  9.2264274660354193   F   F   F
 51.6799695745542707 30.2762317798923348  9.2264274660354193   F   F   F
 21.7615060051542706 18.0583477476923271  9.2264274660354193   F   F   F
 28.2094773491542696 18.0583477476923271  9.2264274660354193   F   F   F
 34.6574486931542722 18.0583477476923271  9.2264274660354193   F   F   F
 41.1054200371542748 18.0583477476923271  9.2264274660354193   F   F   F
 47.5533913811542703 18.0583477476923271  9.2264274660354193   F   F   F
 54.0013627251542729 18.0583477476923271  9.2264274660354193   F   F   F
 10.9288524138542691 24.1672897637923327  9.2264274660354193   F   F   F
 17.3768237578542752 24.1672897637923327  9.2264274660354193   F   F   F
 23.8247951018542743 24.1672897637923327  9.2264274660354193   F   F   F
 58.1279409185542733 30.2762317798923348  9.2264274660354193   F   F   F
 30.2727664458542733 24.1672897637923327  9.2264274660354193   F   F   F
 43.1687091338542643 24.1672897637923327  9.2264274660354193   F   F   F
 49.6166804778542598 24.1672897637923327  9.2264274660354193   F   F   F
 56.0646518218542695 24.1672897637923327  9.2264274660354193   F   F   F
 12.9921415105542710 30.2762317798923348  9.2264274660354193   F   F   F
 19.4401128545542754 30.2762317798923348  9.2264274660354193   F   F   F
 25.8880841985542745 30.2762317798923348  9.2264274660354193   F   F   F
 32.3360555425542842 30.2762317798923348  9.2264274660354193   F   F   F
 38.7840268865542726 30.2762317798923348  9.2264274660354193   F   F   F
 45.2319982305542752 30.2762317798923348  9.2264274660354193   F   F   F
 36.7207377898542688 24.1672897637923327  9.2264274660354193   F   F   F
  7.3344577050680604  6.7738473365040202 23.8427387307718668   T   T   T
 64.3178082086542702 48.6030578281923340  9.2264274660354193   F   F   F
 57.8698368646542747 48.6030578281923340  9.2264274660354193   F   F   F
 52.4277592056257546 19.1321370546699825 13.7457805260363646   F   F   F
 10.8348231366089518  0.8044301091491445 11.8484909360338051   F   F   F
 17.2827944806089491  0.8044301091491445 11.8484909360338051   F   F   F
 23.7307658246089517  0.8044301091491445 11.8484909360338051   F   F   F
 30.1787371686089472  0.8044301091491445 11.8484909360338051   F   F   F
 36.6267085126089498  0.8044301091491445 11.8484909360338051   F   F   F
 43.0746798566089524  0.8044301091491445 11.8484909360338051   F   F   F
 49.5226512006089479  0.8044301091491445 11.8484909360338051   F   F   F
  6.4501408893089502  6.9133721252491451 11.8484909360338051   F   F   F
 12.8981122333089520  6.9133721252491451 11.8484909360338051   F   F   F
 19.3460835773089492  6.9133721252491451 11.8484909360338051   F   F   F
 25.7940549213089518  6.9133721252491451 11.8484909360338051   F   F   F
 32.2420262653089580  6.9133721252491451 11.8484909360338051   F   F   F
 38.6899976093089464  6.9133721252491451 11.8484909360338051   F   F   F
 45.1379689533089490  6.9133721252491451 11.8484909360338051   F   F   F
 51.5859402973089445  6.9133721252491451 11.8484909360338051   F   F   F
  8.5134299860089513 13.0223141413491454 11.8484909360338051   F   F   F
 14.9614013300089521 13.0223141413491454 11.8484909360338051   F   F   F
 21.4093726740089494 13.0223141413491454 11.8484909360338051   F   F   F
 27.8573440180089520 13.0223141413491454 11.8484909360338051   F   F   F
 34.3053153620089475 13.0223141413491454 11.8484909360338051   F   F   F
 40.7532867060089501 13.0223141413491454 11.8484909360338051   F   F   F
 47.2012580500089527 13.0223141413491454 11.8484909360338051   F   F   F
 53.6492293940089482 13.0223141413491454 11.8484909360338051   F   F   F
 10.5767190827089514 19.1312561574491475 11.8484909360338051   F   F   F
 17.0246904267089505 19.1312561574491475 11.8484909360338051   F   F   F
 23.4726617707089495 19.1312561574491475 11.8484909360338051   F   F   F
 29.9206331147089521 19.1312561574491475 11.8484909360338051   F   F   F
  4.3868517926089501  0.8044301091491445 11.8484909360338051   F   F   F
 36.3686044587089583 19.1312561574491475 11.8484909360338051   F   F   F
 60.6584003711851523 43.5345128295207076  9.7145333790886230   F   F   F
 47.7624576831851542 43.5345128295207076  9.7145333790886230   F   F   F
 15.7807050170851557 25.2076867812207048  9.7145333790886230   F   F   F
 22.2286763610851530 25.2076867812207048  9.7145333790886230   F   F   F
 28.6766477050851591 25.2076867812207048  9.7145333790886230   F   F   F
 35.1246190490851546 25.2076867812207048  9.7145333790886230   F   F   F
 41.5725903930851572 25.2076867812207048  9.7145333790886230   F   F   F
 48.0205617370851527 25.2076867812207048  9.7145333790886230   F   F   F
 54.4685330810851553 25.2076867812207048  9.7145333790886230   F   F   F
 11.3960227697851550 31.3166287973207034  9.7145333790886230   F   F   F
 17.8439941137851541 31.3166287973207034  9.7145333790886230   F   F   F
 24.2919654577851531 31.3166287973207034  9.7145333790886230   F   F   F
 30.7399368017851593 31.3166287973207034  9.7145333790886230   F   F   F
 37.1879081457851512 31.3166287973207034  9.7145333790886230   F   F   F
 43.6358794897851539 31.3166287973207034  9.7145333790886230   F   F   F
 54.2104290271851497 43.5345128295207076  9.7145333790886230   F   F   F
 50.0838508337851493 31.3166287973207034  9.7145333790886230   F   F   F
 13.4593118664851552 37.4255708134207055  9.7145333790886230   F   F   F
 19.9072832104851543 37.4255708134207055  9.7145333790886230   F   F   F
 26.3552545544851533 37.4255708134207055  9.7145333790886230   F   F   F
 32.8032258984851524 37.4255708134207055  9.7145333790886230   F   F   F
 39.2511972424851550 37.4255708134207055  9.7145333790886230   F   F   F
 45.6991685864851576 37.4255708134207055  9.7145333790886230   F   F   F
 52.1471399304851531 37.4255708134207055  9.7145333790886230   F   F   F
 58.5951112744851557 37.4255708134207055  9.7145333790886230   F   F   F
 15.5226009631851554 43.5345128295207076  9.7145333790886230   F   F   F
 21.9705723071851544 43.5345128295207076  9.7145333790886230   F   F   F
 28.4185436511851535 43.5345128295207076  9.7145333790886230   F   F   F
 34.8665149951851561 43.5345128295207076  9.7145333790886230   F   F   F
 41.3144863391851516 43.5345128295207076  9.7145333790886230   F   F   F
 56.5318221777851520 31.3166287973207034  9.7145333790886230   F   F   F
 42.8165758027089467 19.1312561574491475 11.8484909360338051   F   F   F
 49.2645471467089493 19.1312561574491475 11.8484909360338051   F   F   F
 55.7125184907089448 19.1312561574491475 11.8484909360338051   F   F   F
  8.5913229429598772  3.8716663013465920 15.6462197047971063   F   F   F
 15.0392942869598762  3.8716663013465920 15.6462197047971063   F   F   F
 21.4872656309598753  3.8716663013465920 15.6462197047971063   F   F   F
 27.9352369749598743  3.8716663013465920 15.6462197047971063   F   F   F
 34.3832083189598734  3.8716663013465920 15.6462197047971063   F   F   F
 40.8311796629598760  3.8716663013465920 15.6462197047971063   F   F   F
 47.2791510069598786  3.8716663013465920 15.6462197047971063   F   F   F
  4.2066406956598774  9.9806083174465918 15.6462197047971063   F   F   F
 10.6546120396598774  9.9806083174465918 15.6462197047971063   F   F   F
 17.1025833836598764  9.9806083174465918 15.6462197047971063   F   F   F
 23.5505547276598755  9.9806083174465918 15.6462197047971063   F   F   F
 29.9985260716598745  9.9806083174465918 15.6462197047971063   F   F   F
 36.4464974156598842  9.9806083174465918 15.6462197047971063   F   F   F
  2.1433515989598768  3.8716663013465920 15.6462197047971063   F   F   F
 42.8944687596598797  9.9806083174465918 15.6462197047971063   F   F   F
  6.2699297923598758 16.0895503335465868 15.6462197047971063   F   F   F
 12.7179011363598757 16.0895503335465868 15.6462197047971063   F   F   F
 19.1658724803598766 16.0895503335465868 15.6462197047971063   F   F   F
 25.6138438243598756 16.0895503335465868 15.6462197047971063   F   F   F
 32.0618151683598711 16.0895503335465868 15.6462197047971063   F   F   F
 38.5097865123598737 16.0895503335465868 15.6462197047971063   F   F   F
 44.9577578563598763 16.0895503335465868 15.6462197047971063   F   F   F
 51.4057292003598789 16.0895503335465868 15.6462197047971063   F   F   F
  8.3332188890598768 22.1984923496465925 15.6462197047971063   F   F   F
 14.7811902330598759 22.1984923496465925 15.6462197047971063   F   F   F
 21.2291615770598767 22.1984923496465925 15.6462197047971063   F   F   F
 27.6771329210598758 22.1984923496465925 15.6462197047971063   F   F   F
 34.1251042650598748 22.1984923496465925 15.6462197047971063   F   F   F
 49.3424401036598894  9.9806083174465918 15.6462197047971063   F   F   F
 63.9656748775089454 43.5670242218491452 11.8484909360338051   F   F   F
 57.5177035335089499 43.5670242218491452 11.8484909360338051   F   F   F
 51.0697321895089473 43.5670242218491452 11.8484909360338051   F   F   F
 12.6400081794089498 25.2401981735491425 11.8484909360338051   F   F   F
 19.0879795234089507 25.2401981735491425 11.8484909360338051   F   F   F
 25.5359508674089497 25.2401981735491425 11.8484909360338051   F   F   F
 31.9839222114089523 25.2401981735491425 11.8484909360338051   F   F   F
 38.4318935554089478 25.2401981735491425 11.8484909360338051   F   F   F
 44.8798648994089504 25.2401981735491425 11.8484909360338051   F   F   F
 51.3278362434089601 25.2401981735491425 11.8484909360338051   F   F   F
 57.7758075874089556 25.2401981735491425 11.8484909360338051   F   F   F
 14.7032972761089500 31.3491401896491446 11.8484909360338051   F   F   F
 21.1512686201089508 31.3491401896491446 11.8484909360338051   F   F   F
 27.5992399641089499 31.3491401896491446 11.8484909360338051   F   F   F
 34.0472113081089560 31.3491401896491446 11.8484909360338051   F   F   F
 40.4951826521089586 31.3491401896491446 11.8484909360338051   F   F   F
 46.9431539961089470 31.3491401896491446 11.8484909360338051   F   F   F
 53.3911253401089496 31.3491401896491446 11.8484909360338051   F   F   F
 59.8390966841089451 31.3491401896491446 11.8484909360338051   F   F   F
 16.7665863728089555 37.4580822057491361 11.8484909360338051   F   F   F
 23.2145577168089545 37.4580822057491361 11.8484909360338051   F   F   F
 29.6625290608089536 37.4580822057491361 11.8484909360338051   F   F   F
 36.1105004048089526 37.4580822057491361 11.8484909360338051   F   F   F
 42.5584717488089552 37.4580822057491361 11.8484909360338051   F   F   F
 49.0064430928089507 37.4580822057491361 11.8484909360338051   F   F   F
 55.4544144368089533 37.4580822057491361 11.8484909360338051   F   F   F
 61.9023857808089488 37.4580822057491361 11.8484909360338051   F   F   F
 18.8298754695089521 43.5670242218491452 11.8484909360338051   F   F   F
 25.2778468135089511 43.5670242218491452 11.8484909360338051   F   F   F
 31.7258181575089502 43.5670242218491452 11.8484909360338051   F   F   F
 38.1737895015089563 43.5670242218491452 11.8484909360338051   F   F   F
 44.6217608455089589 43.5670242218491452 11.8484909360338051   F   F   F
  9.3327336730851549 25.2076867812207048  9.7145333790886230   F   F   F
 52.4052439843851516 19.0987447651206992  9.7145333790886230   F   F   F
 45.9572726403851490 19.0987447651206992  9.7145333790886230   F   F   F
 39.5093012963851535 19.0987447651206992  9.7145333790886230   F   F   F
 11.9039126698701860  3.9117942834520369 21.2670871020739405   T   T   T
 18.2878819637149910  3.9089251187099521 21.3331010301382946   T   T   T
 24.8210845035290539  4.0417751662398489 21.1606834401453554   T   T   T
 31.0106944353517058  3.9181593145132596 21.2567244596457243   T   T   T
 37.7364766672680432  3.8825902544297906 21.3215862003611178   T   T   T
 44.0192518570995688  3.8394465090550005 21.3125341131747668   T   T   T
 50.5751298413410382  3.9623383032488562 21.2441616750048858   T   T   T
  7.6276573170467898 10.0087578775078576 21.3542117217724261   T   T   T
 13.8122384745567164 10.2193294998362134 21.2472990304892768   T   T   T
 20.4646244179073697 10.0007198083616249 21.2944998812552591   T   T   T
 27.0152084540378148 10.1977910319843854 21.1692242803894715   T   T   T
 33.2927413291985275  9.8950473238174403 21.3387872068962601   T   T   T
 39.8387612843293581  9.9684288993114638 21.1092784003147891   T   T   T
  5.3809759013349332  3.9266949852407635 21.2373573018053214   T   T   T
 45.9524068219944581  9.9397192944647994 21.2518949311859942   T   T   T
  9.2431577396336042 16.1933040593503819 21.2732460321073269   T   T   T
 15.9688312717424505 16.3068126785455441 21.2847532572586893   T   T   T
 22.6453254554277912 16.0744251413095149 21.2872890053703756   T   T   T
 29.1752753168718151 16.3253565226827320 21.1518099988336274   T   T   T
 35.4498494341316004 15.9861352889323278 21.2800025963686004   T   T   T
 41.9810149085579738 15.9738319794822097 21.1579715572618205   T   T   T
 48.2391779250612558 16.1602203907102862 21.2028477800590345   T   T   T
 55.0079475692924333 16.0636641037888666 21.4962067412172928   T   T   T
 11.6948505464134698 22.4989214117194720 21.3123570342976798   T   T   T
 18.6441096245318469 22.6386155541028167 21.5170901997624746   T   T   T
 24.3287214603403754 22.1877054146719175 21.2600030843411680   T   T   T
 31.0460058464790869 22.0435920984594702 21.3446097327334030   T   T   T
 37.2385669752918744 22.3064057071105601 21.2248946111441334   T   T   T
 52.3296763948140580 10.0089052871639073 21.2748425783834918   T   T   T
 43.7946170743241723 22.3242809096917298 21.2778700996721923   T   T   T
 60.7094398658376377 43.5418635300714740 17.5254423054545576   F   F   F
 47.8134971778376325 43.5418635300714740 17.5254423054545576   F   F   F
 15.8317445117376394 25.2150374817714820 17.5254423054545576   F   F   F
 22.2797158557376349 25.2150374817714820 17.5254423054545576   F   F   F
 28.7276871997376375 25.2150374817714820 17.5254423054545576   F   F   F
 35.1756585437376401 25.2150374817714820 17.5254423054545576   F   F   F
 41.6236298877376356 25.2150374817714820 17.5254423054545576   F   F   F
 48.0716012317376382 25.2150374817714820 17.5254423054545576   F   F   F
 54.5195725757376408 25.2150374817714820 17.5254423054545576   F   F   F
 11.4470622644376405 31.3239794978714841 17.5254423054545576   F   F   F
 17.8950336084376396 31.3239794978714841 17.5254423054545576   F   F   F
 24.3430049524376351 31.3239794978714841 17.5254423054545576   F   F   F
 30.7909762964376377 31.3239794978714841 17.5254423054545576   F   F   F
 37.2389476404376367 31.3239794978714841 17.5254423054545576   F   F   F
 43.6869189844376393 31.3239794978714841 17.5254423054545576   F   F   F
 54.2614685218376422 43.5418635300714740 17.5254423054545576   F   F   F
 50.1348903284376419 31.3239794978714841 17.5254423054545576   F   F   F
 13.5103513611376407 37.4329215139714861 17.5254423054545576   F   F   F
 19.9583227051376397 37.4329215139714861 17.5254423054545576   F   F   F
 26.4062940491376352 37.4329215139714861 17.5254423054545576   F   F   F
 32.8542653931376378 37.4329215139714861 17.5254423054545576   F   F   F
 39.3022367371376404 37.4329215139714861 17.5254423054545576   F   F   F
 45.7502080811376359 37.4329215139714861 17.5254423054545576   F   F   F
 52.1981794251376385 37.4329215139714861 17.5254423054545576   F   F   F
 58.6461507691376411 37.4329215139714861 17.5254423054545576   F   F   F
 15.5736404578376391 43.5418635300714740 17.5254423054545576   F   F   F
 22.0216118018376399 43.5418635300714740 17.5254423054545576   F   F   F
 28.4695831458376389 43.5418635300714740 17.5254423054545576   F   F   F
 34.9175544898376415 43.5418635300714740 17.5254423054545576   F   F   F
 41.3655258338376370 43.5418635300714740 17.5254423054545576   F   F   F
 56.5828616724376445 31.3239794978714841 17.5254423054545576   F   F   F
 40.5730756090598632 22.1984923496465925 15.6462197047971063   F   F   F
 50.4860001861457590 22.1698815621500920 21.2916518095494958   T   T   T
 13.8210391958943717 28.5601851335047883 21.0954369887977293   T   T   T
  7.5275486302851542  0.7719187168207011  9.7145333790886230   F   F   F
 13.9755199742851524  0.7719187168207011  9.7145333790886230   F   F   F
 20.4234913182851550  0.7719187168207011  9.7145333790886230   F   F   F
 26.8714626622851540  0.7719187168207011  9.7145333790886230   F   F   F
 33.3194340062851566  0.7719187168207011  9.7145333790886230   F   F   F
 39.7674053502851521  0.7719187168207011  9.7145333790886230   F   F   F
 46.2153766942851547  0.7719187168207011  9.7145333790886230   F   F   F
  3.1428663829851540  6.8808607329207012  9.7145333790886230   F   F   F
  9.5908377269851552  6.8808607329207012  9.7145333790886230   F   F   F
 16.0388090709851525  6.8808607329207012  9.7145333790886230   F   F   F
 22.4867804149851587  6.8808607329207012  9.7145333790886230   F   F   F
 28.9347517589851542  6.8808607329207012  9.7145333790886230   F   F   F
 35.3827231029851532  6.8808607329207012  9.7145333790886230   F   F   F
  1.0795772862851540  0.7719187168207011  9.7145333790886230   F   F   F
 41.8306944469851487  6.8808607329207012  9.7145333790886230   F   F   F
  5.2061554796851537 12.9898027490207006  9.7145333790886230   F   F   F
 11.6541268236851536 12.9898027490207006  9.7145333790886230   F   F   F
 18.1020981676851527 12.9898027490207006  9.7145333790886230   F   F   F
 24.5500695116851482 12.9898027490207006  9.7145333790886230   F   F   F
 30.9980408556851508 12.9898027490207006  9.7145333790886230   F   F   F
 37.4460121996851569 12.9898027490207006  9.7145333790886230   F   F   F
 43.8939835436851524 12.9898027490207006  9.7145333790886230   F   F   F
 50.3419548876851550 12.9898027490207006  9.7145333790886230   F   F   F
  7.2694445763851530 19.0987447651206992  9.7145333790886230   F   F   F
 13.7174159203851538 19.0987447651206992  9.7145333790886230   F   F   F
 20.1653872643851528 19.0987447651206992  9.7145333790886230   F   F   F
 26.6133586083851519 19.0987447651206992  9.7145333790886230   F   F   F
 33.0613299523851509 19.0987447651206992  9.7145333790886230   F   F   F
 48.2786657909851513  6.8808607329207012  9.7145333790886230   F   F   F
 56.9438279979142976 22.2648995615458034 21.1188036367648948   T   T   T
 65.1268459919489118 46.8346886964753892 21.1615076283081542   T   T   T
 52.1825584700280984 46.5674083380265600 21.3179260616962516   T   T   T
 20.6122497483312763 28.3694962190730813 21.5028976632254576   T   T   T
 26.2210379753314200 28.3453963511998630 21.3500267314642898   T   T   T
 33.0345145569579230 28.6093192135175087 21.6151064059553448   T   T   T
 39.3590246137231219 28.4994205748293403 21.2411952283234307   T   T   T
 45.9599046966480955 28.3284236369309816 21.2402449361702210   T   T   T
 52.4895388170022130 28.2588352621240304 21.2797104979954241   T   T   T
 58.8907981065311361 28.4331863912434208 21.1539569641055394   T   T   T
 15.7438165463974737 34.5009547554818141 21.2364879769955976   T   T   T
 22.3643531024326236 34.4209428170284468 21.2509879821160723   T   T   T
 28.7463217432676394 34.5427657727033761 21.2232209526240823   T   T   T
 34.9474240879953797 34.6176472933066606 21.2668333119847759   T   T   T
 41.6351362958843367 34.5079062162284984 21.2839573972253469   T   T   T
 48.2054973802144389 34.3955967083353471 21.2681335656964343   T   T   T
 58.8131452845544374 46.4539308929811554 21.2852204088439478   T   T   T
 54.5437111461863964 34.5365686359211210 21.2103647658060410   T   T   T
 17.6949522591638839 40.5549309546639378 21.3001533332478807   T   T   T
 24.3264048245198907 40.5914522043620849 21.3223647837814347   T   T   T
 30.6488284280882155 40.7623765882301399 21.1101434467114650   T   T   T
 37.1111466714273561 40.6023800330409870 21.0734309522185477   T   T   T
 43.6225977189364826 40.5877828028352070 21.3195815581926311   T   T   T
 50.0138522521244724 40.5902368451707574 21.3565192441694904   T   T   T
 56.4049957944525104 40.5873199673119984 21.0464909305241576   T   T   T
 62.9766184048748840 40.5338328645100390 21.2153823826980137   T   T   T
 19.9596982451267912 46.6988225191598971 21.2244161075768467   T   T   T
 27.0575531796239659 47.0137730416523070 21.5991153794557817   T   T   T
 32.8950152242115337 46.6779812450724876 21.2269990603304350   T   T   T
 39.4218963835615526 46.5870371812600581 21.2612285092927245   T   T   T
 45.6067225016469848 46.8151081164492808 21.1752755384914337   T   T   T
 60.8867905048768989 34.3234186004460256 21.3071440665741747   T   T   T
 47.0210469530598729 22.1984923496465925 15.6462197047971063   F   F   F
 53.4690182970598684 22.1984923496465925 15.6462197047971063   F   F   F
 10.3965079857598770 28.3074343657465910 15.6462197047971063   F   F   F
 33.0838451736257539 19.1321370546699825 13.7457805260363646   F   F   F
 26.6358738296257584 19.1321370546699825 13.7457805260363646   F   F   F
 20.1879024856257594 19.1321370546699825 13.7457805260363646   F   F   F
 13.7399311416257532 19.1321370546699825 13.7457805260363646   F   F   F
  7.2919597976257533 19.1321370546699825 13.7457805260363646   F   F   F
 50.3644701089257509 13.0231950385699840 13.7457805260363646   F   F   F
 43.9164987649257483 13.0231950385699840 13.7457805260363646   F   F   F
 37.4685274209257457 13.0231950385699840 13.7457805260363646   F   F   F
 31.0205560769257502 13.0231950385699840 13.7457805260363646   F   F   F
 24.5725847329257583 13.0231950385699840 13.7457805260363646   F   F   F
 18.1246133889257592 13.0231950385699840 13.7457805260363646   F   F   F
 11.6766420449257531 13.0231950385699840 13.7457805260363646   F   F   F
  5.2286707009257531 13.0231950385699840 13.7457805260363646   F   F   F
 39.5318165176257494 19.1321370546699825 13.7457805260363646   F   F   F
 48.3011810122257543  6.9142530224699872 13.7457805260363646   F   F   F
 35.4052383242257491  6.9142530224699872 13.7457805260363646   F   F   F
 28.9572669802257536  6.9142530224699872 13.7457805260363646   F   F   F
 16.0613242922257555  6.9142530224699872 13.7457805260363646   F   F   F
  9.6133529482257547  6.9142530224699872 13.7457805260363646   F   F   F
  3.1653816042257548  6.9142530224699872 13.7457805260363646   F   F   F
 46.2378919155257506  0.8053110063699869 13.7457805260363646   F   F   F
 39.7899205715257480  0.8053110063699869 13.7457805260363646   F   F   F
 33.3419492275257454  0.8053110063699869 13.7457805260363646   F   F   F
 26.8939778835257535  0.8053110063699869 13.7457805260363646   F   F   F
 20.4460065395257544  0.8053110063699869 13.7457805260363646   F   F   F
 13.9980351955257554  0.8053110063699869 13.7457805260363646   F   F   F
  7.5500638515257545  0.8053110063699869 13.7457805260363646   F   F   F
  1.1020925075257542  0.8053110063699869 13.7457805260363646   F   F   F
 41.8532096682257517  6.9142530224699872 13.7457805260363646   F   F   F
 64.8529222532811076 46.5944477486172062  9.9713439191545099   F   F   F
 62.0784080869665900 46.1361769005764089 23.1682288500528664   T   T   T
 48.6294660647383878 46.5823270847918494 23.0759748745759445   T   T   T
 16.8192699855588614 28.3687427980759921 23.0356276923703618   T   T   T
 22.1401769178581844 28.0487664728745330 22.7945689026242881   T   T   T
 29.7470015593031789 27.3876095101226902 21.1188558208182577   T   T   T
 34.6934274189284011 28.3928009803007022 22.6876722385067993   T   T   T
 42.4457718750980320 28.0936695132628778 23.2450236960595440   T   T   T
 49.0240032514574438 28.0032875331791473 23.1726311184819806   T   T   T
 56.4710659139873528 26.6310489271811548 24.1713831111179047   T   T   T
 13.0491824643870213 33.4100182383379760 23.4569754676018789   T   T   T
 19.1027738951425228 34.1129190609772763 23.1523104765634393   T   T   T
 25.6932428071084864 33.8934073523149806 23.1180964934837760   T   T   T
 31.7034156490252279 34.2471390829642317 23.1204481665107551   T   T   T
 38.0065753769240331 34.2887908819378140 23.1860360596743647   T   T   T
 44.9698612541518941 34.0796169222350755 23.2214813146090151   T   T   T
 55.7372724204279351 45.9984287314855749 23.1402544863736495   T   T   T
 51.5170188426115701 33.8966460698520251 23.1316277519610196   T   T   T
 14.2219077838387644 40.1645646364567739 23.0793534757074710   T   T   T
 20.9126606368427197 39.8766273078365927 23.4181694118702275   T   T   T
 27.7110342560719012 40.0992197212128119 23.2514940057657746   T   T   T
 33.5603954638015480 40.6145548184457397 22.9150955379611680   T   T   T
 40.1072314412349726 40.4233029223255755 23.0555369067986611   T   T   T
 46.6632953181635131 40.1629725801163104 23.2032977683406259   T   T   T
 53.3303119654235473 40.0848944900480575 23.3326585729770031   T   T   T
 60.3378861437075358 39.5785889137158904 22.9885409901524049   T   T   T
 16.5962412409114251 46.2015204992326645 23.1623067376103045   T   T   T
 23.3100214403583834 46.5671919306843520 22.7064991979688635   T   T   T
 30.0449542187667689 46.5291273247509451 23.8097286897974811   T   T   T
 36.1682965498028537 46.2554911675416989 23.1093283940523229   T   T   T
 42.5814373651716878 46.1333366078609828 23.1097837034233251   T   T   T
 57.5990532263830914 33.9584554517612958 23.1239555317221637   T   T   T
 10.6373610733129382 27.7377249481850576 23.4188646485402039   T   T   T
 58.4049509092811050 46.5944477486172062  9.9713439191545099   F   F   F
 45.5090082212811069 46.5944477486172062  9.9713439191545099   F   F   F
 30.8078804904811072 22.1586796842172156  9.9713439191545099   F   F   F
 24.3599091464811082 22.1586796842172156  9.9713439191545099   F   F   F
 17.9119378024811091 22.1586796842172156  9.9713439191545099   F   F   F
 11.4639664584811083 22.1586796842172156  9.9713439191545099   F   F   F
 54.5364767697811104 16.0497376681172170  9.9713439191545099   F   F   F
 48.0885054257811078 16.0497376681172170  9.9713439191545099   F   F   F
 41.6405340817811123 16.0497376681172170  9.9713439191545099   F   F   F
 35.1925627377811097 16.0497376681172170  9.9713439191545099   F   F   F
 28.7445913937811035 16.0497376681172170  9.9713439191545099   F   F   F
 22.2966200497811080 16.0497376681172170  9.9713439191545099   F   F   F
 15.8486487057811090 16.0497376681172170  9.9713439191545099   F   F   F
  9.4006773617811081 16.0497376681172170  9.9713439191545099   F   F   F
 52.4731876730811067  9.9407956520172149  9.9713439191545099   F   F   F
 37.2558518344811063 22.1586796842172156  9.9713439191545099   F   F   F
 46.0252163290811040  9.9407956520172149  9.9713439191545099   F   F   F
 33.1292736410811059  9.9407956520172149  9.9713439191545099   F   F   F
 26.6813022970811069  9.9407956520172149  9.9713439191545099   F   F   F
 20.2333309530811079  9.9407956520172149  9.9713439191545099   F   F   F
 13.7853596090811088  9.9407956520172149  9.9713439191545099   F   F   F
  7.3373882650811089  9.9407956520172149  9.9713439191545099   F   F   F
 50.4098985763811100  3.8318536359172146  9.9713439191545099   F   F   F
 43.9619272323811074  3.8318536359172146  9.9713439191545099   F   F   F
 37.5139558883811119  3.8318536359172146  9.9713439191545099   F   F   F
 31.0659845443811058  3.8318536359172146  9.9713439191545099   F   F   F
 24.6180132003811067  3.8318536359172146  9.9713439191545099   F   F   F
 18.1700418563811077  3.8318536359172146  9.9713439191545099   F   F   F
 11.7220705123811086  3.8318536359172146  9.9713439191545099   F   F   F
  5.2740991683811087  3.8318536359172146  9.9713439191545099   F   F   F
 39.5772449850811086  9.9407956520172149  9.9713439191545099   F   F   F
 51.9569795652811095 46.5944477486172062  9.9713439191545099   F   F   F
 43.7038231784811089 22.1586796842172156  9.9713439191545099   F   F   F
 56.5997658664811070 22.1586796842172156  9.9713439191545099   F   F   F
 39.0610368772811114 46.5944477486172062  9.9713439191545099   F   F   F
 32.6130655332811088 46.5944477486172062  9.9713439191545099   F   F   F
 26.1650941892811133 46.5944477486172062  9.9713439191545099   F   F   F
 19.7171228452811071 46.5944477486172062  9.9713439191545099   F   F   F
 62.7896331565811110 40.4855057325172112  9.9713439191545099   F   F   F
 56.3416618125811084 40.4855057325172112  9.9713439191545099   F   F   F
 49.8936904685811129 40.4855057325172112  9.9713439191545099   F   F   F
 43.4457191245811103 40.4855057325172112  9.9713439191545099   F   F   F
 36.9977477805811077 40.4855057325172112  9.9713439191545099   F   F   F
 30.5497764365811086 40.4855057325172112  9.9713439191545099   F   F   F
 24.1018050925811131 40.4855057325172112  9.9713439191545099   F   F   F
 17.6538337485811070 40.4855057325172112  9.9713439191545099   F   F   F
 60.7263440598811073 34.3765637164172162  9.9713439191545099   F   F   F
 50.1517945224811044 22.1586796842172156  9.9713439191545099   F   F   F
 54.2783727158811047 34.3765637164172162  9.9713439191545099   F   F   F
 41.3824300278811066 34.3765637164172162  9.9713439191545099   F   F   F
 34.9344586838811111 34.3765637164172162  9.9713439191545099   F   F   F
 28.4864873398811085 34.3765637164172162  9.9713439191545099   F   F   F
 22.0385159958811094 34.3765637164172162  9.9713439191545099   F   F   F
 15.5905446518811086 34.3765637164172162  9.9713439191545099   F   F   F
 58.6630549631811178 28.2676217003172141  9.9713439191545099   F   F   F
 52.2150836191811081 28.2676217003172141  9.9713439191545099   F   F   F
 45.7671122751811126 28.2676217003172141  9.9713439191545099   F   F   F
 39.3191409311811171 28.2676217003172141  9.9713439191545099   F   F   F
 32.8711695871811074 28.2676217003172141  9.9713439191545099   F   F   F
 26.4231982431811083 28.2676217003172141  9.9713439191545099   F   F   F
 19.9752268991811093 28.2676217003172141  9.9713439191545099   F   F   F
 13.5272555551811084 28.2676217003172141  9.9713439191545099   F   F   F
 47.8304013718811092 34.3765637164172162  9.9713439191545099   F   F   F
  9.3837731677376404 25.2150374817714820 17.5254423054545576   F   F   F
 53.8711398070632228 21.6906337439287249 23.2077632531091282   T   T   T
 40.2820371951489022 22.6067510909869895 23.1604335449124612   T   T   T
 10.8125198354223695  0.8291032129258084 19.4064089348987245   T   T   T
 17.2923375622835991  0.7958582586124102 19.4380065787114731   T   T   T
 23.7326533448934711  0.8886040165015020 19.3079065215206995   T   T   T
 30.1397778611544638  0.8568642356592103 19.4116297915764058   T   T   T
 36.6604156664997660  0.7544963571742347 19.3959785052991940   T   T   T
 43.0512004148028282  0.7460564482584536 19.4523957008321489   T   T   T
 49.5426708700188811  0.8475269510617682 19.3772384159652731   T   T   T
  6.5136056161175100  6.8967638235854469 19.4062312340060217   T   T   T
 12.9156025009501896  6.9994711631627418 19.3034082179512048   T   T   T
 19.2100644237584284  6.8937482966572636 19.5183742302095027   T   T   T
 25.8185987335354454  7.0472927055400039 19.2706575827777939   T   T   T
 32.3077724363064860  6.8202582030558130 19.4172727496661359   T   T   T
 38.6847595231479531  6.9696447949359186 19.3176944903097088   T   T   T
  4.3784791733299473  0.8297174645955803 19.3887672080155440   T   T   T
 44.9878221287056235  6.7997147373561759 19.5206785683928601   T   T   T
  8.5040938689478125 13.0824512789307530 19.3178440125091271   T   T   T
 14.8101042790951833 13.0591326844574400 19.5086950499091145   T   T   T
 21.4953535156413551 13.0209022415082902 19.3909433526406332   T   T   T
 27.9405803843126002 13.1380673906970120 19.2544719489779474   T   T   T
 34.1445566058192611 12.9671802834866909 19.5173887101986807   T   T   T
 40.7974015041384916 13.0468018537668247 19.3383710901673886   T   T   T
 47.1118172148828052 13.0324319075368500 19.4441963367706734   T   T   T
 53.6706373509336245 12.9274530357882700 19.3072882397536816   T   T   T
 10.4562607206914997 18.9579721914362516 19.5735224697542165   T   T   T
 16.9957338843992289 19.2398234372592114 19.2631971117033025   T   T   T
 23.4319990335183057 19.1062005772568781 19.4080361150947382   T   T   T
 29.9528461947168090 19.1818418208903232 19.3584439404062536   T   T   T
 36.3815218122914672 19.1603073216342281 19.3162288269960030   T   T   T
 51.5852485726557646  6.9628928179095171 19.3831055852849659   T   T   T
 42.8310677051898168 19.1528607032946603 19.3726204105534592   T   T   T
 61.7221746838598690 46.6342604140465937 15.6462197047971063   F   F   F
 48.8262319958598638 46.6342604140465937 15.6462197047971063   F   F   F
 16.8444793297598778 28.3074343657465910 15.6462197047971063   F   F   F
 23.2924506737598769 28.3074343657465910 15.6462197047971063   F   F   F
 29.7404220177598759 28.3074343657465910 15.6462197047971063   F   F   F
 36.1883933617598714 28.3074343657465910 15.6462197047971063   F   F   F
 42.6363647057598740 28.3074343657465910 15.6462197047971063   F   F   F
 49.0843360497598766 28.3074343657465910 15.6462197047971063   F   F   F
 55.5323073937598792 28.3074343657465910 15.6462197047971063   F   F   F
 12.4597970824598754 34.4163763818465895 15.6462197047971063   F   F   F
 18.9077684264598744 34.4163763818465895 15.6462197047971063   F   F   F
 25.3557397704598735 34.4163763818465895 15.6462197047971063   F   F   F
 31.8037111144598725 34.4163763818465895 15.6462197047971063   F   F   F
 38.2516824584598751 34.4163763818465895 15.6462197047971063   F   F   F
 44.6996538024598706 34.4163763818465895 15.6462197047971063   F   F   F
 55.2742033398598736 46.6342604140465937 15.6462197047971063   F   F   F
 51.1476251464598732 34.4163763818465895 15.6462197047971063   F   F   F
 14.5230861791598755 40.5253183979465845 15.6462197047971063   F   F   F
 20.9710575231598746 40.5253183979465845 15.6462197047971063   F   F   F
 27.4190288671598736 40.5253183979465845 15.6462197047971063   F   F   F
 33.8670002111598762 40.5253183979465845 15.6462197047971063   F   F   F
 40.3149715551598717 40.5253183979465845 15.6462197047971063   F   F   F
 46.7629428991598743 40.5253183979465845 15.6462197047971063   F   F   F
 53.2109142431598769 40.5253183979465845 15.6462197047971063   F   F   F
 59.6588855871598795 40.5253183979465845 15.6462197047971063   F   F   F
 16.5863752758598793 46.6342604140465937 15.6462197047971063   F   F   F
 23.0343466198598783 46.6342604140465937 15.6462197047971063   F   F   F
 29.4823179638598774 46.6342604140465937 15.6462197047971063   F   F   F
 35.9302893078598728 46.6342604140465937 15.6462197047971063   F   F   F
 42.3782606518598755 46.6342604140465937 15.6462197047971063   F   F   F
 57.5955964904598758 34.4163763818465895 15.6462197047971063   F   F   F
 46.8812555291612441 21.9185907192835820 23.2284823983318667   T   T   T
 49.3194364007468593 19.1378724627256389 19.4010863619384182   T   T   T
 12.5929961612415298 25.3391250424915668 19.4114015660731845   T   T   T
  8.4445208214301175  3.7107641319833800 23.1941247763725613   T   T   T
 14.8027995148082567  3.4642828000804533 23.1873262852229374   T   T   T
 21.6640321533224984  3.4520158400822267 23.2430302361060299   T   T   T
 27.7196864772174010  3.6049511494545197 23.1845907594601712   T   T   T
 34.1114016781218083  2.8859083777381591 21.3078631070968463   T   T   T
 40.7120555076879285  3.4386489118450214 23.2243968890492312   T   T   T
 47.1901803107785369  3.9863941094888782 23.2050848184584275   T   T   T
  3.8275349915736911  9.0423925420671569 21.2733024650756626   T   T   T
 10.8975611085987705  9.4578845364571968 23.2021884215558849   T   T   T
 16.9442738188420279  9.8861316089333311 23.2359898321734484   T   T   T
 23.7606040313606606  9.5086609518964114 23.3156514981801628   T   T   T
 30.0639666882185068  9.6759177956583624 23.0737974009225937   T   T   T
 36.7043900282378814  9.4762354695187003 23.1227761249351076   T   T   T
  2.1258039477870798  3.8758932563663757 22.9740089732735839   T   T   T
 42.8568998339196625 12.0008697787807872 22.6930299986354811   T   T   T
  6.3835162018141656 15.4844234625662143 23.2028129982452818   T   T   T
 12.3298833947299578 16.5943041245506180 22.9603666229547727   T   T   T
 19.1654335245908634 15.8459182251773285 23.2469604531930933   T   T   T
 26.1091087075386454 15.6699298517315508 23.1839643851956616   T   T   T
 32.0189254646109802 15.7469984588112144 23.3843067269643257   T   T   T
 38.6720522961853348 15.6560848985188521 23.1730622059003188   T   T   T
 45.9453417548114516 14.2101718258968663 24.2155599169270062   T   T   T
 51.5042781872924280 15.6592458292912298 23.0875161874739163   T   T   T
  8.5312692190108077 23.3711255871375911 22.3611360861503954   T   T   T
 14.8803865177116439 22.2884643308556925 22.7129194350860502   T   T   T
 21.5164913972746206 22.1846659482322899 23.9293494246682350   T   T   T
 27.5311417595578298 22.4177579715550479 23.1208818795154727   T   T   T
 34.0872339146031322 21.6296602804650888 23.2596636338851397   T   T   T
 49.0023044017365308  9.9727457725409216 23.1121807045468763   T   T   T
 55.7325088579336239 19.2248058157330242 19.2973026475554796   T   T   T
 64.0066994170119870 43.6505229156742658 19.2751019876610314   T   T   T
 50.8457221248563727 43.5774916543381039 19.5241035451600489   T   T   T
 19.0139053697080911 25.3648015402881910 19.2684926185831316   T   T   T
 25.5015024219836910 25.1916928987545461 19.4869626140162744   T   T   T
 31.9793656682977208 25.3992495626690449 19.2049491708953290   T   T   T
 38.3591333853181098 25.2324780211658855 19.4930877927607895   T   T   T
 44.8814347977496553 25.2511400385708527 19.4003373941267938   T   T   T
 51.3347498296110345 25.2718220985445789 19.3849342772149207   T   T   T
 57.7116590325073560 25.2591457073116459 19.4254370300262096   T   T   T
 14.6818671239009912 31.4009668676626283 19.4357731497211077   T   T   T
 21.2109089843630976 31.3089092733800918 19.4054011438454097   T   T   T
 27.6054612915205055 31.4242492367947648 19.3065988921926426   T   T   T
 33.8825318268444917 31.3437274057754216 19.5111047105430337   T   T   T
 40.4920051529102167 31.4127996136348209 19.4090014221476785   T   T   T
 47.0558659620822439 31.3263731693444498 19.3599005622392397   T   T   T
 57.6166799413805677 43.5379154080590780 19.3755487961050150   T   T   T
 53.3996428267845999 31.4088091074154896 19.3061745261752513   T   T   T
 16.7375361047213040 37.4603767671219714 19.4132338780853786   T   T   T
 23.2516351983694740 37.5074625948760954 19.3966192115451257   T   T   T
 29.6750096490636786 37.5518816867791756 19.2889376696917836   T   T   T
 35.8975584481296792 37.5022517742392623 19.4028196377789008   T   T   T
 42.5567473628706168 37.4962188350407288 19.3976958439531977   T   T   T
 49.0539637569069882 37.4632970370665817 19.4061888699690286   T   T   T
 55.4550118579407894 37.5184278688526049 19.3022149997341117   T   T   T
 61.7785182723755781 37.4938809211386612 19.4041295628209411   T   T   T
 18.6493802499079138 43.5651083370443359 19.4950663529032262   T   T   T
 25.2488511181898758 43.6334259044908706 19.2813938767621273   T   T   T
 31.7392546739997670 43.6017398852011553 19.3814912707497768   T   T   T
 38.2519020396251648 43.5534401905525286 19.3757031929602519   T   T   T
 44.6424252633220604 43.6371617619445189 19.2995648543966318   T   T   T
 59.6319697570192488 31.4141404257913059 19.4574172379718213   T   T   T
 45.9797878616257520 19.1321370546699825 13.7457805260363646   F   F   F
 52.4562834790376442 19.1060954656714834 17.5254423054545576   F   F   F
 39.5603407910376390 19.1060954656714834 17.5254423054545576   F   F   F
  2.1709232311185183  3.8661109027844298 11.9109239597412113   F   F   F
  8.6188945751185191  3.8661109027844298 11.9109239597412113   F   F   F
 15.0668659191185181  3.8661109027844298 11.9109239597412113   F   F   F
 21.5148372631185190  3.8661109027844298 11.9109239597412113   F   F   F
 27.9628086071185180  3.8661109027844298 11.9109239597412113   F   F   F
 34.4107799511185206  3.8661109027844298 11.9109239597412113   F   F   F
 40.8587512951185161  3.8661109027844298 11.9109239597412113   F   F   F
 47.3067226391185187  3.8661109027844298 11.9109239597412113   F   F   F
  4.2342123278185184  9.9750529188844315 11.9109239597412113   F   F   F
 10.6821836718185192  9.9750529188844315 11.9109239597412113   F   F   F
 17.1301550158185201  9.9750529188844315 11.9109239597412113   F   F   F
 23.5781263598185191  9.9750529188844315 11.9109239597412113   F   F   F
 30.0260977038185182  9.9750529188844315 11.9109239597412113   F   F   F
 61.0304325477997054 43.4110838961407666 21.2032811541226174   T   T   T
 36.4740690478185172  9.9750529188844315 11.9109239597412113   F   F   F
 49.3700117358185153  9.9750529188844315 11.9109239597412113   F   F   F
  6.2975014245185186 16.0839949349844318 11.9109239597412113   F   F   F
 12.7454727685185194 16.0839949349844318 11.9109239597412113   F   F   F
 19.1934441125185202 16.0839949349844318 11.9109239597412113   F   F   F
 25.6414154565185193 16.0839949349844318 11.9109239597412113   F   F   F
 32.0893868005185183 16.0839949349844318 11.9109239597412113   F   F   F
 38.5373581445185209 16.0839949349844318 11.9109239597412113   F   F   F
 44.9853294885185164 16.0839949349844318 11.9109239597412113   F   F   F
 51.4333008325185190 16.0839949349844318 11.9109239597412113   F   F   F
  8.3607905212185187 22.1929369510844303 11.9109239597412113   F   F   F
 14.8087618652185196 22.1929369510844303 11.9109239597412113   F   F   F
 21.2567332092185239 22.1929369510844303 11.9109239597412113   F   F   F
 27.7047045532185265 22.1929369510844303 11.9109239597412113   F   F   F
 42.9220403918185127  9.9750529188844315 11.9109239597412113   F   F   F
 34.1526758972185149 22.1929369510844303 11.9109239597412113   F   F   F
 54.1228597013961732 43.4931902379305626 21.1646725390676202   T   T   T
 41.5727161181318579 43.4494201531538664 21.2354413959539770   T   T   T
  9.0383748401148587 24.9115113658232765 21.2235692022202045   T   T   T
 15.7430938647623275 25.4413711604847812 21.1731462474390781   T   T   T
 21.7453811169756861 24.8191303785507067 21.3009628841823861   T   T   T
 29.0944994064514333 25.1800938999108119 21.1056096055317077   T   T   T
 34.6833086859007764 25.2530638996304369 20.9928308492790023   T   T   T
 41.6683918837255121 25.3991557321759878 21.0999319421890341   T   T   T
 48.0867153474226114 25.1830573338794537 21.1100374191763684   T   T   T
 54.4187399075269056 25.2747135264056197 21.2264061694531030   T   T   T
 10.9300640655012842 30.9630813088169532 21.3357727531973715   T   T   T
 18.0432728352303826 31.3785185062226262 21.1005358864438648   T   T   T
 24.4858288037247398 31.2348594432142477 21.2556557084265734   T   T   T
 30.3397255503887138 31.3157166521161585 21.2711779776568335   T   T   T
 37.0012468176260825 31.4463140665940060 21.2686434424143371   T   T   T
 47.3503331906570395 43.6923514468854748 21.2704391213263264   T   T   T
 43.9110632580499569 31.3286502256021890 21.1227310250642901   T   T   T
 56.1175843831238765 31.3685231996395935 21.1789070769472865   T   T   T
 13.2646501551393321 37.4027260805163024 21.2439497861048991   T   T   T
 19.8861259714532572 37.4701855604965672 21.1651030715035233   T   T   T
 26.6944162378291523 37.3959595201601260 21.2129556407789721   T   T   T
 32.3903671505452593 37.6874972776393662 21.2121775124529144   T   T   T
 39.1863521992326369 37.5237677915945724 21.0625107286674087   T   T   T
 45.7439908727203033 37.3547326410792238 21.1685387165242425   T   T   T
 52.3678586953555012 37.3993898917080116 21.2393713775065720   T   T   T
 58.0486933237722695 37.7079217796608717 21.4237991701262089   T   T   T
 15.0936196554857123 43.6605420387798446 21.2091072591492456   T   T   T
 22.0637259616028345 43.7541547043336934 21.0507845930246056   T   T   T
 28.4273943533936411 43.5754605851208012 21.1464370675329754   T   T   T
 34.9539760432948796 43.5307396953290748 21.1739902500497230   T   T   T
 50.3769848699573899 31.1934883113774077 21.2762438265335199   T   T   T
 52.8900192772695519 18.9931930604757007 21.1276609486341727   T   T   T
 40.6006472412185175 22.1929369510844303 11.9109239597412113   F   F   F
 53.4965899292185156 22.1929369510844303 11.9109239597412113   F   F   F
  4.3546022594985310  0.7792694173714815 15.6670670430993493   F   F   F
 10.8025736034985300  0.7792694173714815 15.6670670430993493   F   F   F
 17.2505449474985255  0.7792694173714815 15.6670670430993493   F   F   F
 23.6985162914985281  0.7792694173714815 15.6670670430993493   F   F   F
 30.1464876354985272  0.7792694173714815 15.6670670430993493   F   F   F
 36.5944589794985262  0.7792694173714815 15.6670670430993493   F   F   F
 43.0424303234985288  0.7792694173714815 15.6670670430993493   F   F   F
 49.4904016674985243  0.7792694173714815 15.6670670430993493   F   F   F
  6.4178913561985311  6.8882114334714828 15.6670670430993493   F   F   F
 12.8658627001985302  6.8882114334714828 15.6670670430993493   F   F   F
 19.3138340441985257  6.8882114334714828 15.6670670430993493   F   F   F
 25.7618053881985283  6.8882114334714828 15.6670670430993493   F   F   F
 32.2097767321985202  6.8882114334714828 15.6670670430993493   F   F   F
 61.7497463160185163 46.6287050154844351 11.9109239597412113   F   F   F
 38.6577480761985299  6.8882114334714828 15.6670670430993493   F   F   F
 51.5536907641985280  6.8882114334714828 15.6670670430993493   F   F   F
  8.4811804528985313 12.9971534495714813 15.6670670430993493   F   F   F
 14.9291517968985303 12.9971534495714813 15.6670670430993493   F   F   F
 21.3771231408985258 12.9971534495714813 15.6670670430993493   F   F   F
 27.8250944848985284 12.9971534495714813 15.6670670430993493   F   F   F
 34.2730658288985381 12.9971534495714813 15.6670670430993493   F   F   F
 40.7210371728985265 12.9971534495714813 15.6670670430993493   F   F   F
 47.1690085168985291 12.9971534495714813 15.6670670430993493   F   F   F
 53.6169798608985246 12.9971534495714813 15.6670670430993493   F   F   F
 10.5444695495985314 19.1060954656714834 15.6670670430993493   F   F   F
 16.9924408935985305 19.1060954656714834 15.6670670430993493   F   F   F
 23.4404122375985260 19.1060954656714834 15.6670670430993493   F   F   F
 29.8883835815985286 19.1060954656714834 15.6670670430993493   F   F   F
 45.1057194201985325  6.8882114334714828 15.6670670430993493   F   F   F
 47.0486185852185130 22.1929369510844303 11.9109239597412113   F   F   F
 55.3017749720185066 46.6287050154844351 11.9109239597412113   F   F   F
 42.4058322840185156 46.6287050154844351 11.9109239597412113   F   F   F
 10.4240796179185189 28.3018789671844324 11.9109239597412113   F   F   F
 16.8720509619185215 28.3018789671844324 11.9109239597412113   F   F   F
 23.3200223059185205 28.3018789671844324 11.9109239597412113   F   F   F
 29.7679936499185196 28.3018789671844324 11.9109239597412113   F   F   F
 36.2159649939185186 28.3018789671844324 11.9109239597412113   F   F   F
 42.6639363379185212 28.3018789671844324 11.9109239597412113   F   F   F
 49.1119076819185167 28.3018789671844324 11.9109239597412113   F   F   F
 55.5598790259185193 28.3018789671844324 11.9109239597412113   F   F   F
 12.4873687146185173 34.4108209832844238 11.9109239597412113   F   F   F
 18.9353400586185217 34.4108209832844238 11.9109239597412113   F   F   F
 25.3833114026185243 34.4108209832844238 11.9109239597412113   F   F   F
 31.8312827466185233 34.4108209832844238 11.9109239597412113   F   F   F
 38.2792540906185152 34.4108209832844238 11.9109239597412113   F   F   F
 48.8538036280185111 46.6287050154844351 11.9109239597412113   F   F   F
 44.7272254346185179 34.4108209832844238 11.9109239597412113   F   F   F
 57.6231681226185160 34.4108209832844238 11.9109239597412113   F   F   F
 14.5506578113185192 40.5197629993844330 11.9109239597412113   F   F   F
 20.9986291553185218 40.5197629993844330 11.9109239597412113   F   F   F
 27.4466004993185209 40.5197629993844330 11.9109239597412113   F   F   F
 33.8945718433185164 40.5197629993844330 11.9109239597412113   F   F   F
 40.3425431873185190 40.5197629993844330 11.9109239597412113   F   F   F
 46.7905145313185216 40.5197629993844330 11.9109239597412113   F   F   F
 53.2384858753185171 40.5197629993844330 11.9109239597412113   F   F   F
 59.6864572193185197 40.5197629993844330 11.9109239597412113   F   F   F
 16.6139469080185194 46.6287050154844351 11.9109239597412113   F   F   F
 23.0619182520185220 46.6287050154844351 11.9109239597412113   F   F   F
 29.5098895960185210 46.6287050154844351 11.9109239597412113   F   F   F
 35.9578609400185201 46.6287050154844351 11.9109239597412113   F   F   F
 51.1751967786185133 34.4108209832844238 11.9109239597412113   F   F   F
 36.3363549255985276 19.1060954656714834 15.6670670430993493   F   F   F
 45.7877785159500235 19.0950213705832326 21.3428721208246230   T   T   T
 33.2273646417926543 18.7899056344717401 21.2193186170001766   T   T   T
  5.3673371742403218  3.8716663013465920 17.5462896789491865   F   F   F
 11.8153085182403217  3.8716663013465920 17.5462896789491865   F   F   F
 18.2632798622403207  3.8716663013465920 17.5462896789491865   F   F   F
 24.7112512062403198  3.8716663013465920 17.5462896789491865   F   F   F
 31.1592225502403188  3.8716663013465920 17.5462896789491865   F   F   F
 37.6071938942403179  3.8716663013465920 17.5462896789491865   F   F   F
 44.0551652382403205  3.8716663013465920 17.5462896789491865   F   F   F
 50.5031365822403231  3.8716663013465920 17.5462896789491865   F   F   F
  7.4306262709403219  9.9806083174465918 17.5462896789491865   F   F   F
 13.8785976149403218  9.9806083174465918 17.5462896789491865   F   F   F
 20.3265689589403209  9.9806083174465918 17.5462896789491865   F   F   F
 26.7745403029403199  9.9806083174465918 17.5462896789491865   F   F   F
 33.2225116469403190  9.9806083174465918 17.5462896789491865   F   F   F
 60.6809155924257553 43.5679051190699909 13.7457805260363646   F   F   F
 39.6704829909403216  9.9806083174465918 17.5462896789491865   F   F   F
 52.5664256789403268  9.9806083174465918 17.5462896789491865   F   F   F
  9.4939153676403212 16.0895503335465868 17.5462896789491865   F   F   F
 15.9418867116403202 16.0895503335465868 17.5462896789491865   F   F   F
 22.3898580556403211 16.0895503335465868 17.5462896789491865   F   F   F
 28.8378293996403201 16.0895503335465868 17.5462896789491865   F   F   F
 35.2858007436403156 16.0895503335465868 17.5462896789491865   F   F   F
 41.7337720876403182 16.0895503335465868 17.5462896789491865   F   F   F
 48.1817434316403208 16.0895503335465868 17.5462896789491865   F   F   F
 54.6297147756403234 16.0895503335465868 17.5462896789491865   F   F   F
 11.5572044643403213 22.1984923496465925 17.5462896789491865   F   F   F
 18.0051758083403222 22.1984923496465925 17.5462896789491865   F   F   F
 24.4531471523403212 22.1984923496465925 17.5462896789491865   F   F   F
 30.9011184963403203 22.1984923496465925 17.5462896789491865   F   F   F
 46.1184543349403313  9.9806083174465918 17.5462896789491865   F   F   F
 37.3490898403403193 22.1984923496465925 17.5462896789491865   F   F   F
 54.2329442484257527 43.5679051190699909 13.7457805260363646   F   F   F
 41.3370015604257546 43.5679051190699909 13.7457805260363646   F   F   F
  9.3552488943257543 25.2410790707699881 13.7457805260363646   F   F   F
 15.8032202383257552 25.2410790707699881 13.7457805260363646   F   F   F
 22.2511915823257596 25.2410790707699881 13.7457805260363646   F   F   F
 28.6991629263257622 25.2410790707699881 13.7457805260363646   F   F   F
 35.1471342703257505 25.2410790707699881 13.7457805260363646   F   F   F
 41.5951056143257460 25.2410790707699881 13.7457805260363646   F   F   F
 48.0430769583257486 25.2410790707699881 13.7457805260363646   F   F   F
 54.4910483023257513 25.2410790707699881 13.7457805260363646   F   F   F
 11.4185379910257545 31.3500210868699867 13.7457805260363646   F   F   F
 17.8665093350257536 31.3500210868699867 13.7457805260363646   F   F   F
 24.3144806790257597 31.3500210868699867 13.7457805260363646   F   F   F
 30.7624520230257623 31.3500210868699867 13.7457805260363646   F   F   F
 37.2104233670257543 31.3500210868699867 13.7457805260363646   F   F   F
 47.7849729044257501 43.5679051190699909 13.7457805260363646   F   F   F
 43.6583947110257498 31.3500210868699867 13.7457805260363646   F   F   F
 56.5543373990257550 31.3500210868699867 13.7457805260363646   F   F   F
 13.4818270877257547 37.4589631029699888 13.7457805260363646   F   F   F
 19.9297984317257537 37.4589631029699888 13.7457805260363646   F   F   F
 26.3777697757257599 37.4589631029699888 13.7457805260363646   F   F   F
 32.8257411197257625 37.4589631029699888 13.7457805260363646   F   F   F
 39.2737124637257509 37.4589631029699888 13.7457805260363646   F   F   F
 45.7216838077257464 37.4589631029699888 13.7457805260363646   F   F   F
 52.1696551517257490 37.4589631029699888 13.7457805260363646   F   F   F
 58.6176264957257516 37.4589631029699888 13.7457805260363646   F   F   F
 15.5451161844257548 43.5679051190699909 13.7457805260363646   F   F   F
 21.9930875284257539 43.5679051190699909 13.7457805260363646   F   F   F
 28.4410588724257600 43.5679051190699909 13.7457805260363646   F   F   F
 34.8890302164257520 43.5679051190699909 13.7457805260363646   F   F   F
 50.1063660550257524 31.3500210868699867 13.7457805260363646   F   F   F
 38.8689079078278255 19.2069155636418323 21.5340178391427344   T   T   T
 43.7970611843403148 22.1984923496465925 17.5462896789491865   F   F   F
 56.6930038723403200 22.1984923496465925 17.5462896789491865   F   F   F
  1.1297908799376470  0.8397147616001915 21.2547502712033562   T   T   T
  7.5229821495400300  0.8313644562594624 21.2549096183934303   T   T   T
 13.7885862178089038  0.5676106607925651 21.2900220468684189   T   T   T
 20.7067868672718696  0.7161002259146371 21.1965639628498259   T   T   T
 26.3198103645238959  0.7926694087705922 21.4694730414404873   T   T   T
 33.4121118280124136  0.9717995660513107 21.2038900038777349   T   T   T
 39.8133867019238821  0.5908900505393391 21.2186804182080060   T   T   T
 46.3084828190065991  0.7968271922315781 21.2115131316977141   T   T   T
  3.2836657193019207  7.0744720948540358 21.2113248814510555   T   T   T
  9.8791446724731706  6.7710118501975414 21.1981988453933923   T   T   T
 15.6484656931570907  7.0999743163330571 21.2579452996952867   T   T   T
 22.6933795199660757  6.8458758399835853 21.1814682375279126   T   T   T
 28.3580505326544277  6.9122026053837402 21.4667644408310707   T   T   T
 64.9461602591403278 46.6342604140465937 17.5462896789491865   F   F   F
 35.6018506576890132  6.7278375262032633 21.3290549911312581   T   T   T
 48.3425442352154064  6.9150916883575002 21.1025996386224328   T   T   T
  5.4271163069099675 12.8435304322140915 21.2447254185145020   T   T   T
 11.1822567786704798 13.2699879218808672 21.2778198554055926   T   T   T
 18.1693085001909154 13.0883289490774093 21.1287026822935928   T   T   T
 24.9307777017622101 12.9432686860016446 21.2382224642707520   T   T   T
 30.6678840658463159 13.1415702855146197 21.1879933531455578   T   T   T
 37.5862140562048737 12.9202975010691841 21.1082510667704852   T   T   T
 43.8186744518411402 12.9960837944939005 21.1948536839958486   T   T   T
 50.3082060407646168 12.9409119466110916 21.2104949886643084   T   T   T
  6.7942176209413043 19.3238556871765823 21.1651056384892584   T   T   T
 13.6965234218305447 19.3943126454874637 21.0403098155367161   T   T   T
 20.1236370242185814 19.2248855851395994 21.1221246933768292   T   T   T
 26.4432771944377265 19.2453361342640186 21.2159038072961756   T   T   T
 41.3340761721365695  7.0128695261419791 21.2764895597939550   T   T   T
 50.2450325283403103 22.1984923496465925 17.5462896789491865   F   F   F
 58.4981889151403109 46.6342604140465937 17.5462896789491865   F   F   F
 45.6022462271403199 46.6342604140465937 17.5462896789491865   F   F   F
 13.6204935610403215 28.3074343657465910 17.5462896789491865   F   F   F
 20.0684649050403223 28.3074343657465910 17.5462896789491865   F   F   F
 26.5164362490403214 28.3074343657465910 17.5462896789491865   F   F   F
 32.9644075930403204 28.3074343657465910 17.5462896789491865   F   F   F
 39.4123789370403159 28.3074343657465910 17.5462896789491865   F   F   F
 45.8603502810403185 28.3074343657465910 17.5462896789491865   F   F   F
 52.3083216250403211 28.3074343657465910 17.5462896789491865   F   F   F
 58.7562929690403237 28.3074343657465910 17.5462896789491865   F   F   F
 15.6837826577403199 34.4163763818465895 17.5462896789491865   F   F   F
 22.1317540017403189 34.4163763818465895 17.5462896789491865   F   F   F
 28.5797253457403180 34.4163763818465895 17.5462896789491865   F   F   F
 35.0276966897403170 34.4163763818465895 17.5462896789491865   F   F   F
 41.4756680337403196 34.4163763818465895 17.5462896789491865   F   F   F
 52.0502175711403154 46.6342604140465937 17.5462896789491865   F   F   F
 47.9236393777403151 34.4163763818465895 17.5462896789491865   F   F   F
 60.8195820657403203 34.4163763818465895 17.5462896789491865   F   F   F
 17.7470717544403271 40.5253183979465845 17.5462896789491865   F   F   F
 24.1950430984403191 40.5253183979465845 17.5462896789491865   F   F   F
 30.6430144424403181 40.5253183979465845 17.5462896789491865   F   F   F
 37.0909857864403207 40.5253183979465845 17.5462896789491865   F   F   F
 43.5389571304403162 40.5253183979465845 17.5462896789491865   F   F   F
 49.9869284744403188 40.5253183979465845 17.5462896789491865   F   F   F
 56.4348998184403214 40.5253183979465845 17.5462896789491865   F   F   F
 62.8828711624403240 40.5253183979465845 17.5462896789491865   F   F   F
 19.8103608511403237 46.6342604140465937 17.5462896789491865   F   F   F
 26.2583321951403228 46.6342604140465937 17.5462896789491865   F   F   F
 32.7063035391403218 46.6342604140465937 17.5462896789491865   F   F   F
 39.1542748831403173 46.6342604140465937 17.5462896789491865   F   F   F
 54.3716107217403177 34.4163763818465895 17.5462896789491865   F   F   F
 42.7843262695985302 19.1060954656714834 15.6670670430993493   F   F   F
 49.2322976135985328 19.1060954656714834 15.6670670430993493   F   F   F
 55.6802689575985283 19.1060954656714834 15.6670670430993493   F   F   F
 11.8317980050230105  3.8363006524757042 13.7484707469786436   F   F   F
 18.2797693490230095  3.8363006524757042 13.7484707469786436   F   F   F
 24.7277406930230121  3.8363006524757042 13.7484707469786436   F   F   F
 31.1757120370230112  3.8363006524757042 13.7484707469786436   F   F   F
 37.6236833810230209  3.8363006524757042 13.7484707469786436   F   F   F
 44.0716547250230164  3.8363006524757042 13.7484707469786436   F   F   F
 50.5196260690230119  3.8363006524757042 13.7484707469786436   F   F   F
  7.4471157577230116  9.9452426685757054 13.7484707469786436   F   F   F
 13.8950871017230106  9.9452426685757054 13.7484707469786436   F   F   F
 20.3430584457230097  9.9452426685757054 13.7484707469786436   F   F   F
 26.7910297897230123  9.9452426685757054 13.7484707469786436   F   F   F
 33.2390011337230149  9.9452426685757054 13.7484707469786436   F   F   F
 39.6869724777230104  9.9452426685757054 13.7484707469786436   F   F   F
  5.3838266610230114  3.8363006524757042 13.7484707469786436   F   F   F
 46.1349438217230130  9.9452426685757054 13.7484707469786436   F   F   F
  9.5104048544230118 16.0541846846757039 13.7484707469786436   F   F   F
 15.9583761984230108 16.0541846846757039 13.7484707469786436   F   F   F
 22.4063475424230099 16.0541846846757039 13.7484707469786436   F   F   F
 28.8543188864230125 16.0541846846757039 13.7484707469786436   F   F   F
 35.3022902304230115 16.0541846846757039 13.7484707469786436   F   F   F
 41.7502615744229999 16.0541846846757039 13.7484707469786436   F   F   F
 48.1982329184230096 16.0541846846757039 13.7484707469786436   F   F   F
 54.6462042624230051 16.0541846846757039 13.7484707469786436   F   F   F
 11.5736939511230119 22.1631267007757060 13.7484707469786436   F   F   F
 18.0216652951230110 22.1631267007757060 13.7484707469786436   F   F   F
 24.4696366391230100 22.1631267007757060 13.7484707469786436   F   F   F
 30.9176079831230126 22.1631267007757060 13.7484707469786436   F   F   F
 37.3655793271230081 22.1631267007757060 13.7484707469786436   F   F   F
 52.5829151657230085  9.9452426685757054 13.7484707469786436   F   F   F
 43.8135506711230107 22.1631267007757060 13.7484707469786436   F   F   F
 65.0497764279489701 43.4224087398711731 22.5435064932780058   T   T   T
 50.2597512534625039 43.6659100545839394 23.2888161530767945   T   T   T
 18.3770456118309653 25.5560592017318733 23.1650950263222484   T   T   T
 24.4595202150972355 25.8132609819843637 22.7382070864043122   T   T   T
 33.1479461213157833 25.0858443738179524 22.3319033578978150   T   T   T
 37.1452684625873388 25.9010066328748891 22.8529085939792402   T   T   T
 44.2941636241844350 25.4144589572737090 23.3359968435452707   T   T   T
 50.7860229719816942 25.2000087934096051 23.2191650629300028   T   T   T
 57.4646853914820284 25.1690826709974047 23.1450602756098753   T   T   T
 13.5575046580005090 31.5245411881375297 23.0352904481951981   T   T   T
 20.9125832833838423 31.2572998196598704 23.3474007589369918   T   T   T
 28.6396341973583439 31.0593048821666109 22.5234817560966860   T   T   T
 33.5610909375713931 31.4609675291977133 23.3849835042811129   T   T   T
 39.8310619185150117 31.5886663919990198 23.0629373658090167   T   T   T
 47.2227842743456705 31.1422246034870298 23.1003981874678246   T   T   T
 57.5072797103694100 42.8153500122176709 22.9614406654797847   T   T   T
 54.5146935387422076 31.0865986799902565 22.5392139498097670   T   T   T
 15.9937499746773444 37.4259375344592513 23.2391022429554184   T   T   T
 22.6570078229010790 37.3878379383571087 23.1326011353488212   T   T   T
 30.7787145165090514 37.4231971776541315 22.5828285456093454   T   T   T
 35.1953307232058634 37.8336752714094189 23.1492622859294563   T   T   T
 41.7784322464722280 37.5421113162028917 23.2311256747167505   T   T   T
 48.4313514978643411 37.3502051790107075 23.2845890423518149   T   T   T
 56.3511966092717174 37.4659977276501550 22.6070474009119060   T   T   T
 61.0512122599386089 37.7503336092156800 22.9948362705120886   T   T   T
 18.5116496501440331 43.3819637369469362 22.9209677512685737   T   T   T
 24.8648650272139982 43.8210836674005861 22.9625272422975009   T   T   T
 31.6372326472799941 43.5371303369297635 23.1570728410733153   T   T   T
 38.2210242907282023 43.2900066418159923 23.1081093688603154   T   T   T
 45.6804558676761729 43.4549476188519321 22.5690459740655811   T   T   T
 59.2462762184268428 31.0241220550196850 23.2464658923317096   T   T   T
 11.4678821493506433 25.8047446669362515 23.1712730621552048   T   T   T
 50.2615220151230133 22.1631267007757060 13.7484707469786436   F   F   F
 13.6369830478230138 28.2720687168757081 13.7484707469786436   F   F   F
  7.5785881249376397  0.7792694173714815 17.5254423054545576   F   F   F
 14.0265594689376396  0.7792694173714815 17.5254423054545576   F   F   F
 20.4745308129376369  0.7792694173714815 17.5254423054545576   F   F   F
 26.9225021569376359  0.7792694173714815 17.5254423054545576   F   F   F
 33.3704735009376350  0.7792694173714815 17.5254423054545576   F   F   F
 39.8184448449376376  0.7792694173714815 17.5254423054545576   F   F   F
 46.2664161889376402  0.7792694173714815 17.5254423054545576   F   F   F
  3.1939058776376399  6.8882114334714828 17.5254423054545576   F   F   F
  9.6418772216376389  6.8882114334714828 17.5254423054545576   F   F   F
 16.0898485656376344  6.8882114334714828 17.5254423054545576   F   F   F
 22.5378199096376370  6.8882114334714828 17.5254423054545576   F   F   F
 28.9857912536376325  6.8882114334714828 17.5254423054545576   F   F   F
 35.4337625976376387  6.8882114334714828 17.5254423054545576   F   F   F
  1.1306167809376395  0.7792694173714815 17.5254423054545576   F   F   F
 41.8817339416376413  6.8882114334714828 17.5254423054545576   F   F   F
  5.2571949743376392 12.9971534495714813 17.5254423054545576   F   F   F
 11.7051663183376391 12.9971534495714813 17.5254423054545576   F   F   F
 18.1531376623376381 12.9971534495714813 17.5254423054545576   F   F   F
 24.6011090063376372 12.9971534495714813 17.5254423054545576   F   F   F
 31.0490803503376362 12.9971534495714813 17.5254423054545576   F   F   F
 37.4970516943376353 12.9971534495714813 17.5254423054545576   F   F   F
 43.9450230383376379 12.9971534495714813 17.5254423054545576   F   F   F
 50.3929943823376405 12.9971534495714813 17.5254423054545576   F   F   F
  7.3204840710376393 19.1060954656714834 17.5254423054545576   F   F   F
 13.7684554150376393 19.1060954656714834 17.5254423054545576   F   F   F
 20.2164267590376383 19.1060954656714834 17.5254423054545576   F   F   F
 26.6643981030376374 19.1060954656714834 17.5254423054545576   F   F   F
 33.1123694470376364 19.1060954656714834 17.5254423054545576   F   F   F
 48.3297052856376439  6.8882114334714828 17.5254423054545576   F   F   F
 56.7094933591230088 22.1631267007757060 13.7484707469786436   F   F   F
 64.9626497459230166 46.5988947651757002 13.7484707469786436   F   F   F
 52.0667070579230113 46.5988947651757002 13.7484707469786436   F   F   F
 20.0849543918230111 28.2720687168757081 13.7484707469786436   F   F   F
 26.5329257358230102 28.2720687168757081 13.7484707469786436   F   F   F
 32.9808970798230163 28.2720687168757081 13.7484707469786436   F   F   F
 39.4288684238230118 28.2720687168757081 13.7484707469786436   F   F   F
 45.8768397678230144 28.2720687168757081 13.7484707469786436   F   F   F
 52.3248111118230170 28.2720687168757081 13.7484707469786436   F   F   F
 58.7727824558230125 28.2720687168757081 13.7484707469786436   F   F   F
 15.7002721445230140 34.3810107329757102 13.7484707469786436   F   F   F
 22.1482434885230113 34.3810107329757102 13.7484707469786436   F   F   F
 28.5962148325230103 34.3810107329757102 13.7484707469786436   F   F   F
 35.0441861765230129 34.3810107329757102 13.7484707469786436   F   F   F
 41.4921575205230155 34.3810107329757102 13.7484707469786436   F   F   F
 47.9401288645230110 34.3810107329757102 13.7484707469786436   F   F   F
 58.5146784019230140 46.5988947651757002 13.7484707469786436   F   F   F
 54.3881002085230136 34.3810107329757102 13.7484707469786436   F   F   F
 17.7635612412230124 40.4899527490757052 13.7484707469786436   F   F   F
 24.2115325852230114 40.4899527490757052 13.7484707469786436   F   F   F
 30.6595039292230105 40.4899527490757052 13.7484707469786436   F   F   F
 37.1074752732230237 40.4899527490757052 13.7484707469786436   F   F   F
 43.5554466172230121 40.4899527490757052 13.7484707469786436   F   F   F
 50.0034179612230147 40.4899527490757052 13.7484707469786436   F   F   F
 56.4513893052230173 40.4899527490757052 13.7484707469786436   F   F   F
 62.8993606492230128 40.4899527490757052 13.7484707469786436   F   F   F
 19.8268503379230125 46.5988947651757002 13.7484707469786436   F   F   F
 26.2748216819230116 46.5988947651757002 13.7484707469786436   F   F   F
 32.7227930259230106 46.5988947651757002 13.7484707469786436   F   F   F
 39.1707643699230132 46.5988947651757002 13.7484707469786436   F   F   F
 45.6187357139230159 46.5988947651757002 13.7484707469786436   F   F   F
 60.8360715525230091 34.3810107329757102 13.7484707469786436   F   F   F
 56.9059662117045093 18.9493378188516672 22.5493258778113272   T   T   T
 48.7788990693154929 19.1784500006301606 22.9630019138200510   T   T   T
 41.8419837608174348 19.4312825161562799 22.9059997773998489   T   T   T
  2.1157226163411647  3.9398391670906552 19.3787133193434471   T   T   T
  8.5998260849012027  3.8355395795971354 19.3648602140537811   T   T   T
 15.0220019941534506  3.7962029820783907 19.4282023966514537   T   T   T
 21.4421842118770591  3.8740059245524252 19.4220826662715318   T   T   T
 27.8777221797802746  3.8523815060815121 19.3983222021112915   T   T   T
 34.4901094394807117  3.7971527234382920 19.3553951595981069   T   T   T
 40.8230341623678754  3.7906471649812645 19.4116921790572334   T   T   T
 47.2567494149197387  3.8351463946494815 19.3916924613802095   T   T   T
  4.3299326342391629  9.9100586420969936 19.3368155161849700   T   T   T
 10.6264576209268924  9.9728287318799129 19.4137494745131889   T   T   T
 17.1329586850433486  9.9756348444966765 19.3520900813859988   T   T   T
 23.5541864839241306  9.9640106529882200 19.4198806870366205   T   T   T
 30.0641106328710457  9.8603303477559567 19.3749279496525091   T   T   T
 63.9334253443985290 43.5418635300714740 15.6670670430993493   F   F   F
 36.4048855168619951  9.9431072455164369 19.4357841086585488   T   T   T
 49.2357552815305226 10.0000144696507363 19.3900651414112630   T   T   T
  6.1804041709447404 16.0066188722557357 19.4355609079494869   T   T   T
 12.7322098781991233 16.0592940314576573 19.3431300665478574   T   T   T
 19.2193744320558082 16.0520090109467084 19.3617882678472810   T   T   T
 25.6979114641280759 16.0451140471898448 19.3720133995502870   T   T   T
 32.0904667402098838 16.0340627679723404 19.4396669925009817   T   T   T
 38.5372780834081254 16.0877129193626338 19.3966558374676410   T   T   T
 44.9723411917505018 16.0635480614238979 19.3617067799966236   T   T   T
 51.3478007769409928 16.0871334125619150 19.4833027397934337   T   T   T
  8.5566307017598078 22.1290316509159979 19.2006145418082816   T   T   T
 14.7720756875919808 22.2822060177937509 19.3009977454636044   T   T   T
 21.2535456501033018 22.1313546398700893 19.3149800370638616   T   T   T
 27.6848437562514214 22.2013960244339650 19.3729900942489515   T   T   T
 42.9275762597522927  9.8707645826684765 19.4773616634376339   T   T   T
 34.0452660193495902 22.0309771158222816 19.4541934664135958   T   T   T
 57.4854540003985335 43.5418635300714740 15.6670670430993493   F   F   F
 44.5895113123985283 43.5418635300714740 15.6670670430993493   F   F   F
 12.6077586462985316 25.2150374817714820 15.6670670430993493   F   F   F
 19.0557299902985307 25.2150374817714820 15.6670670430993493   F   F   F
 25.5037013342985261 25.2150374817714820 15.6670670430993493   F   F   F
 31.9516726782985288 25.2150374817714820 15.6670670430993493   F   F   F
 38.3996440222985385 25.2150374817714820 15.6670670430993493   F   F   F
 44.8476153662985269 25.2150374817714820 15.6670670430993493   F   F   F
 51.2955867102985295 25.2150374817714820 15.6670670430993493   F   F   F
 57.7435580542985250 25.2150374817714820 15.6670670430993493   F   F   F
 14.6710477429985318 31.3239794978714841 15.6670670430993493   F   F   F
 21.1190190869985308 31.3239794978714841 15.6670670430993493   F   F   F
 27.5669904309985263 31.3239794978714841 15.6670670430993493   F   F   F
 34.0149617749985325 31.3239794978714841 15.6670670430993493   F   F   F
 40.4629331189985209 31.3239794978714841 15.6670670430993493   F   F   F
 51.0374826563985238 43.5418635300714740 15.6670670430993493   F   F   F
 46.9109044629985306 31.3239794978714841 15.6670670430993493   F   F   F
 59.8068471509985287 31.3239794978714841 15.6670670430993493   F   F   F
 16.7343368396985319 37.4329215139714861 15.6670670430993493   F   F   F
 23.1823081836985310 37.4329215139714861 15.6670670430993493   F   F   F
 29.6302795276985265 37.4329215139714861 15.6670670430993493   F   F   F
 36.0782508716985291 37.4329215139714861 15.6670670430993493   F   F   F
 42.5262222156985388 37.4329215139714861 15.6670670430993493   F   F   F
 48.9741935596985272 37.4329215139714861 15.6670670430993493   F   F   F
 55.4221649036985298 37.4329215139714861 15.6670670430993493   F   F   F
 61.8701362476985253 37.4329215139714861 15.6670670430993493   F   F   F
 18.7976259363985285 43.5418635300714740 15.6670670430993493   F   F   F
 25.2455972803985276 43.5418635300714740 15.6670670430993493   F   F   F
 31.6935686243985266 43.5418635300714740 15.6670670430993493   F   F   F
 38.1415399683985328 43.5418635300714740 15.6670670430993493   F   F   F
 53.3588758069985332 31.3239794978714841 15.6670670430993493   F   F   F
 40.5144013954102036 22.1292294471947706 19.4345311664381946   T   T   T
 47.0398399759405237 22.1077579023128337 19.3992286636533215   T   T   T
 53.4891592763466619 22.1603636901484364 19.3749449905469469   T   T   T
 10.1854131378857655  0.9433073955341659 23.4045445153633409   T   T   T
 16.6032785595381824  0.7776715193118349 23.2281579673741234   T   T   T
 24.5718500737010501  0.7496003608958560 22.6205935519557642   T   T   T
 30.1235358206169508  0.8945285198013609 23.3334691687847098   T   T   T
 35.9445772934022685  0.6384616216431944 23.2584679996036030   T   T   T
 42.4974879154315843  0.6309806245124696 23.3289067354592348   T   T   T
 49.5744107174961215  0.9891250356166884 23.0878140879678249   T   T   T
  5.8034820114923926  7.0411256837974872 23.3706745261911806   T   T   T
 14.0091677071484124  6.7869712218841034 22.5805252734655646   T   T   T
 18.6247698610392121  7.0176672797328923 23.1599359792541293   T   T   T
 26.6054380940959447  6.9526859005572463 22.6039607007267698   T   T   T
 31.7844047302773518  6.7010766102607278 23.4085765128030410   T   T   T
 39.7436119800144425  6.7015441095403023 22.5548330595539852   T   T   T
  4.5629068089373757  0.8015747629147117 22.9571570102267692   T   T   T
 43.9380593853491490  7.4382665712150766 22.9200020589306064   T   T   T
  9.5750653942446728 12.8287953803234203 22.5945221690902152   T   T   T
 14.0338572356676128 13.5005463959441894 23.0855118210640171   T   T   T
 20.9178124195600361 13.0321112594882251 23.1705478628415662   T   T   T
 29.1099337299580050 12.9201400988508084 22.5308314875739768   T   T   T
 33.5805176825006342 12.9858107892746553 23.1121893722700698   T   T   T
 40.9765340343152573 12.7853052277911150 22.9803598072442448   T   T   T
 47.0091597682888107 12.8484825620184324 23.1104806648820045   T   T   T
 53.9066745525564812 12.7978126783555339 22.6696778891299928   T   T   T
  9.3916985262914299 20.0275046016265605 22.6394163792767209   T   T   T
 16.4557221997962877 19.5425145962020892 22.9664964765335036   T   T   T
 22.6925692054978541 19.0546838258282953 23.1582278307310432   T   T   T
 29.3103413195160272 19.1448435800839540 22.9413239056036815   T   T   T
 37.0848212046740144 19.0460315026229559 22.5928100957333591   T   T   T
 51.5878879540123947  7.0716945029174045 22.9999531050770827   T   T   T
 61.7732536358367241 46.6151610302626480 19.3528166133936885   T   T   T
 55.3508571323073397 46.5098381303839687 19.3830999654010157   T   T   T
 48.8480721035212397 46.7104911821284006 19.3584126033312209   T   T   T
 10.3250174887437307 28.2227947235971470 19.4736033882946593   T   T   T
 16.9995701622620423 28.2891612139168345 19.2701329493778282   T   T   T
 23.3749134981522353 28.2759343075255245 19.3821738698325170   T   T   T
 29.9108047308802476 28.2487963532731641 19.2749464875554928   T   T   T
 36.2263108461538437 28.3212166441838278 19.3717155199867292   T   T   T
 42.6544924041274740 28.3281307636056354 19.3492659305716721   T   T   T
 49.1265989212872256 28.2793242189812837 19.3802986911382398   T   T   T
 55.5580368315227275 28.2174269699210996 19.3880491743071630   T   T   T
 12.5048095899256708 34.4219770888458783 19.4420097609498725   T   T   T
 18.9760866439158598 34.3591546180001259 19.3497478346382685   T   T   T
 25.3846484989721084 34.4172354133116372 19.3920153693949580   T   T   T
 31.8085558548577936 34.3925599810730276 19.3752727363398520   T   T   T
 38.2475894812798245 34.4242930787866044 19.3687111527419269   T   T   T
 44.7778692640068385 34.3399441572936794 19.3774723225450103   T   T   T
 51.1863867521313338 34.3847192619235997 19.3780841144300275   T   T   T
 57.6163272960941413 34.4750428987737081 19.3554913600082230   T   T   T
 14.4994168461862216 40.4365241769853228 19.4032796572944513   T   T   T
 20.9384222053546516 40.5859921825426824 19.4898014483234121   T   T   T
 27.3679971978234136 40.5075991674544511 19.3951446281383433   T   T   T
 33.9149812412100502 40.4988867260455478 19.3266204464137381   T   T   T
 40.3376214786585621 40.5193802068741604 19.3659642025873779   T   T   T
 46.7748675958555964 40.4713808955199568 19.4087520787133201   T   T   T
 53.1019763759073555 40.5283182049213337 19.4195340911488792   T   T   T
 59.6628365034081938 40.4602179974773151 19.4646358224681393   T   T   T
 16.6269355276850206 46.6584471627211528 19.3522287864304445   T   T   T
 23.1003401881386594 46.6672605274029735 19.2865717908691323   T   T   T
 29.5706951315437436 46.5817533849876497 19.3266439553659666   T   T   T
 36.0110001720591697 46.5975484223247278 19.3596322418362377   T   T   T
 42.3636873569199963 46.6375637838240209 19.3870428610931071   T   T   T
 46.0083121350376416 19.1060954656714834 17.5254423054545576   F   F   F
 22.5092956362257546  6.9142530224699872 13.7457805260363646   F   F   F
