Cu Fe O  S 
 1.0000000000000000
    51.5837707519999995    0.0000000000000000    0.0000000000000000
    16.5063127736000013   48.8715361288000025    0.0000000000000000
     0.0000000000000000    0.0000000000000000   35.1925086975000028
 Cu  Fe  O   S  
 512 456  96 1024
Selective dynamics
Cartesian
 19.2705381650390954  9.1958456722158477 15.6476701992355736   F   F   F
 27.5509324400422280 24.4535559758791337 19.3249374743422564   T   T   T
 34.1572812783512205 24.3988765191157633 19.4063965974443420   T   T   T
 40.6997850390602238 24.4898636713507507 19.4838870821747285   T   T   T
 46.9619609838814966 24.3374023730401170 19.2748788565537303   T   T   T
 53.3182202791637749 24.4774659027273849 19.3429191925264448   T   T   T
 10.3660069771137877 30.4666013797990480 19.2943501539169340   T   T   T
 16.7060975471613666 30.5950300319145434 19.3444698180620520   T   T   T
 23.2047699135030570 30.5463062725253458 19.3424167299973888   T   T   T
 29.7674934500844337 30.4645006956814370 19.3921634252166122   T   T   T
 36.1817477998611992 30.5556334565038874 19.3811334881183512   T   T   T
 42.6102315973680206 30.5602840887052380 19.3794954864044833   T   T   T
 49.1278779748589045 30.6390413826544048 19.4380906578364652   T   T   T
 55.6692286006682906 30.5509357735192069 19.4792068355980668   T   T   T
 21.2069261009651520 24.3491495703654302 19.2958984827731115   T   T   T
 12.3576126224202323 36.6914788537695458 19.3220669578277118   T   T   T
 25.4422457345921806 36.6396248996513805 19.4151687116101286   T   T   T
 31.9196069505448285 36.6596983635244626 19.4649998826231254   T   T   T
 38.1921168067038010 36.6182144280998614 19.2963958255895953   T   T   T
 44.4045960895442988 36.6119144774690142 19.1994982019170983   T   T   T
 51.1076534474231821 36.6429152411949772 19.3604347938307022   T   T   T
 57.5484255165110810 36.6403169176863415 19.3444223224285956   T   T   T
 14.4157325739096169 42.7273492314331591 19.3272723320636715   T   T   T
 21.0903255915143539 42.8480323606474869 19.4519126418348982   T   T   T
 27.4505861980590318 42.7417784060954276 19.3453605767007559   T   T   T
 33.6398441887642861 42.7858812828719550 19.2795011438657156   T   T   T
 40.3691212397625350 42.7741957431343707 19.3737272157646885   T   T   T
 46.6187822880489904 42.6401436276518879 19.1706523992176372   T   T   T
 53.1693479815966015 42.8432747567420122 19.4097259206519652   T   T   T
 18.8816354828215722 36.7301341243347821 19.4447769441983702   T   T   T
 59.6011322743235326 42.8283067249265486 19.3931960959163519   T   T   T
 14.8419202698353896 24.4861976996208988 19.4471478890415952   T   T   T
 51.1663265439299622 18.3583166104602391 19.2839842822960215   T   T   T
 19.3575839568782797  0.0536842176062008 19.3787002508344450   T   T   T
 25.8713893134345980 -0.1256091662586357 19.3207814874851422   T   T   T
 32.1902819320000333 -0.2193853056860997 19.1478396327193252   T   T   T
 38.8488386364542535  0.0224785072202821 19.4422854804591090   T   T   T
 44.9914016724146890 -0.0675261691810171 19.1501640478532380   T   T   T
  2.0198516568754119  6.1937740259737177 19.3631412241772907   T   T   T
  8.4824817873109257  6.0036498280735122 19.2429378149605803   T   T   T
 15.0134602255165674  6.1421640428158071 19.3298890220271034   T   T   T
 21.6349554354028015  6.0950316890546583 19.4364071033920247   T   T   T
 27.9160309377737050  6.0285018865764251 19.2985275898465218   T   T   T
 34.1937570293068873  6.1094878846038272 19.1649474112258495   T   T   T
 40.7341095202593522  6.1952796040725691 19.3264376377787812   T   T   T
 47.3034758397432284  6.0394037588138403 19.3062783127207247   T   T   T
  8.2915024368381438 24.5257676248186698 19.3998490510748312   T   T   T
  4.1454713134546628 12.3102247043638329 19.4040049282376934   T   T   T
 17.0969518733631425 12.2358898611520512 19.4044019415354185   T   T   T
 23.6028529418990622 12.1643549119996273 19.3869738439011421   T   T   T
 29.9314243820404116 12.0334548904868015 19.2386123285015316   T   T   T
 36.3157402890673495 12.2515399237054616 19.2676553427455204   T   T   T
 42.8784613657614315 12.1693297845998618 19.3234358909321919   T   T   T
 49.3217849999338895 12.2345885370602296 19.3925668380028533   T   T   T
  6.2829252894731979 18.3242618804790993 19.3930073449407168   T   T   T
 12.6412546434380015 18.2443176664709021 19.3033788113894182   T   T   T
 19.1088994138786354 18.2522592649453514 19.3101503297615444   T   T   T
 25.5056775679053516 18.3210997536889266 19.3346597578693213   T   T   T
 31.9955691887379459 18.3076723696213648 19.2940130478738752   T   T   T
 38.5452831226314672 18.2453720814565656 19.3592780338214574   T   T   T
 44.9158919955602727 18.2599357677337260 19.2829085245635490   T   T   T
 10.7412835543387164 12.2787736243976688 19.4722066161336471   T   T   T
 12.7910600867140989  0.0312627489265907 19.3330069425330322   T   T   T
  4.2707313042744310  2.5535552476693280 22.3098424601083138   T   T   T
 17.8188168314357789  3.2065227832388086 22.3902649744019229   T   T   T
 31.8027657961630013 26.9811232322749817 22.4394513441773782   T   T   T
 38.1416852738707419 27.1946830810939169 22.5333181823094293   T   T   T
 44.8044031885504808 27.0467891101992031 22.3692133835599591   T   T   T
 50.7213747050847843 27.4743120426167202 22.3928557394719441   T   T   T
 57.4934094874302843 27.2148283971430907 22.4677585375312781   T   T   T
 14.2034967259382423 33.4267704104337611 22.5000562582075183   T   T   T
 20.4972494980204658 33.6194839363964064 22.4691816359500081   T   T   T
 27.1217566409428166 33.4882585823773695 22.4401595739215374   T   T   T
 34.1228315482928579 33.3473867855069201 22.6378076518138549   T   T   T
 40.0444560628342572 33.3432993181246502 22.4984096103447371   T   T   T
 46.7979942833313487 33.0921944622848940 22.5484986569965287   T   T   T
 53.1004206855294640 33.5001077186049372 22.5828639117311241   T   T   T
 59.7749218676074108 33.1212114963739808 22.3714026179189425   T   T   T
 25.0740319081955754 27.4257517109332341 22.4743467127881509   T   T   T
 15.9484515918712084 39.9463984417601168 22.2241103450216215   T   T   T
 29.4489368672671397 39.3807803434436039 22.5535894849945819   T   T   T
 36.1630952649810098 39.3067418879093253 22.3219214142218654   T   T   T
 42.0143503157856131 39.5520202546463508 22.4323917890621409   T   T   T
 45.7867934439693940 39.5295638389839610 21.3084236938921485   T   T   T
 54.9525616444107712 39.5336746814942472 22.5094519134077444   T   T   T
 61.1885298268149285 39.6155175460187579 22.5589838716575777   T   T   T
 18.7624464451817161 44.8775185659503109 22.1343643269370602   T   T   T
 25.1381305204055430 45.2962798613131881 22.4326238662279032   T   T   T
 31.3407180780306760 45.6113006435363317 22.4162694780586769   T   T   T
 37.6951360823421098 45.7157017770678422 22.4524163972407571   T   T   T
 44.6094979891254937 45.1489830350202652 22.3330566661884866   T   T   T
 50.8004452765360028 46.0079131841475899 22.3642535500958601   T   T   T
 57.2642549772265710 45.6083720479187633 22.3349367053367693   T   T   T
 20.8691404322093419 39.9242617929377488 21.3465323604257264   T   T   T
  9.9048387107056222  3.2444956297881085 22.4003398703597192   T   T   T
 19.0762786770606034 27.0071853012574294 22.3691789358830597   T   T   T
 55.4549430869260220 20.8968919030539055 22.4679821099471155   T   T   T
 23.6405768811306487  2.5933544763157896 22.4514963762934805   T   T   T
 29.8396936231306782  2.5872781526361317 22.5743845792406219   T   T   T
 33.5750320054217539  3.4560093052972696 21.3801852893517079   T   T   T
 43.0400839166775668  2.4456864584930882 22.1514542676387052   T   T   T
 49.0236996598914274  2.6005366316482132 22.4205151222233106   T   T   T
  5.9051092983430520  9.1132277149219139 22.4741073233365221   T   T   T
 12.6924743112397209  8.5910019782047904 22.3849135135064152   T   T   T
 19.0146927523521079  9.0937397080587701 22.4535903591998576   T   T   T
 26.1316148942020234  8.8048640480541120 22.1637074353509007   T   T   T
 31.1708329839782259  8.6522591322520856 20.6247710549771845   T   T   T
 38.5647132383968128  8.9670300850584930 22.2998156397955363   T   T   T
 45.1807484659005922  8.6943501249316224 22.4022601831532988   T   T   T
 51.4689428846091630  8.5803797187485742 22.2907185425402723   T   T   T
 12.6728438313747205 27.3943359378681244 22.4736438133911207   T   T   T
  8.2990179740756709 15.2773565074304774 22.4866010467322432   T   T   T
 21.2070573303817440 15.2463963310170865 22.7699709635178067   T   T   T
 27.8461450159613619 14.9658960277698601 22.4087004695342493   T   T   T
 33.9843784494653036 15.0159695080159707 22.3387561384703730   T   T   T
 40.5968501171027611 15.4737088805642973 23.0021438911774645   T   T   T
 46.7358241231460738 14.9612971028134627 22.4709311732054076   T   T   T
 53.4717218345149163 15.1513953597507438 22.2872284159059824   T   T   T
  9.8757266676816560 21.4391393242474848 22.4215262479321034   T   T   T
 16.6150171853728601 21.2064568464858318 22.4772207738500001   T   T   T
 23.5480960360321419 21.3203910661781570 22.4445003599459874   T   T   T
 29.4791374150899124 21.1621869565385055 22.5505231632087515   T   T   T
 35.9822420911031102 21.0669419629610033 22.4425395012836901   T   T   T
 42.6988913982613099 20.8508175414623729 22.3864998929751309   T   T   T
 49.1190466198009972 21.3149616046702199 22.3784145034281998   T   T   T
 14.0645852213300717 15.4982945873276012 22.2759500633011491   T   T   T
 64.0019245715885035 45.6233412896786419 22.6670837051904357   T   T   T
  6.4309602952762175  0.0033416429402910 19.2864509893738472   T   T   T
 63.8901294652391059 45.8494977688158514 15.6476701992355736   F   F   F
 36.5048461035414036 12.3125145985003890 11.6694502797732387   F   F   F
 30.0568747595413974 12.3125145985003890 11.6694502797732387   F   F   F
 23.6089034155414019 12.3125145985003890 11.6694502797732387   F   F   F
 17.1609320715414029 12.3125145985003890 11.6694502797732387   F   F   F
 10.7129607275414003 12.3125145985003890 11.6694502797732387   F   F   F
  4.2649893835414021 12.3125145985003890 11.6694502797732387   F   F   F
 47.3374996948413980  6.2035725824003869 11.6694502797732387   F   F   F
 40.8895283508413954  6.2035725824003869 11.6694502797732387   F   F   F
 34.4415570068413999  6.2035725824003869 11.6694502797732387   F   F   F
 27.9935856628413973  6.2035725824003869 11.6694502797732387   F   F   F
 21.5456143188414018  6.2035725824003869 11.6694502797732387   F   F   F
 15.0976429748414009  6.2035725824003869 11.6694502797732387   F   F   F
  8.6496716308414001  6.2035725824003869 11.6694502797732387   F   F   F
 42.9528174475413991 12.3125145985003890 11.6694502797732387   F   F   F
  2.2017002868414011  6.2035725824003869 11.6694502797732387   F   F   F
 38.8262392541413988  0.0946305663003873 11.6694502797732387   F   F   F
 32.3782679101414033  0.0946305663003873 11.6694502797732387   F   F   F
 25.9302965661413971  0.0946305663003873 11.6694502797732387   F   F   F
 19.4823252221414016  0.0946305663003873 11.6694502797732387   F   F   F
 13.0343538781414008  0.0946305663003873 11.6694502797732387   F   F   F
  6.5863825341414000  0.0946305663003873 11.6694502797732387   F   F   F
  0.1384111901414013  0.0946305663003873 11.6694502797732387   F   F   F
 14.5814348670414002 42.8572246790003817 11.6694502797732387   F   F   F
 21.0294062110414011 42.8572246790003817 11.6694502797732387   F   F   F
 27.4773775550414037 42.8572246790003817 11.6694502797732387   F   F   F
 33.9253488990414027 42.8572246790003817 11.6694502797732387   F   F   F
 40.3733202430413982 42.8572246790003817 11.6694502797732387   F   F   F
 46.8212915870414008 42.8572246790003817 11.6694502797732387   F   F   F
 45.2742105981414014  0.0946305663003873 11.6694502797732387   F   F   F
 53.2692629310413963 42.8572246790003817 11.6694502797732387   F   F   F
 49.4007887915414017 12.3125145985003890 11.6694502797732387   F   F   F
 12.7762498242414004 18.4214566146003875 11.6694502797732387   F   F   F
 44.7580024903414042 36.7482826629003867 11.6694502797732387   F   F   F
 38.3100311463414016 36.7482826629003867 11.6694502797732387   F   F   F
 31.8620598023414026 36.7482826629003867 11.6694502797732387   F   F   F
 25.4140884583414035 36.7482826629003867 11.6694502797732387   F   F   F
 18.9661171143414009 36.7482826629003867 11.6694502797732387   F   F   F
 12.5181457703414001 36.7482826629003867 11.6694502797732387   F   F   F
 55.5906560816413986 30.6393406468003846 11.6694502797732387   F   F   F
 49.1426847376413960 30.6393406468003846 11.6694502797732387   F   F   F
 42.6947133936414005 30.6393406468003846 11.6694502797732387   F   F   F
 36.2467420496413979 30.6393406468003846 11.6694502797732387   F   F   F
 29.7987707056414024 30.6393406468003846 11.6694502797732387   F   F   F
 23.3507993616414034 30.6393406468003846 11.6694502797732387   F   F   F
 16.9028280176414007 30.6393406468003846 11.6694502797732387   F   F   F
  6.3282784802414023 18.4214566146003875 11.6694502797732387   F   F   F
 10.4548566736413999 30.6393406468003846 11.6694502797732387   F   F   F
 47.0793956409413994 24.5303986307003896 11.6694502797732387   F   F   F
 40.6314242969414039 24.5303986307003896 11.6694502797732387   F   F   F
 34.1834529529414013 24.5303986307003896 11.6694502797732387   F   F   F
 27.7354816089414022 24.5303986307003896 11.6694502797732387   F   F   F
 21.2875102649414032 24.5303986307003896 11.6694502797732387   F   F   F
 14.8395389209414006 24.5303986307003896 11.6694502797732387   F   F   F
  8.3915675769414015 24.5303986307003896 11.6694502797732387   F   F   F
 51.4640778882413983 18.4214566146003875 11.6694502797732387   F   F   F
 45.0161065442413957 18.4214566146003875 11.6694502797732387   F   F   F
 38.5681352002414002 18.4214566146003875 11.6694502797732387   F   F   F
 32.1201638562413976 18.4214566146003875 11.6694502797732387   F   F   F
 25.6721925122414021 18.4214566146003875 11.6694502797732387   F   F   F
 19.2242211682414030 18.4214566146003875 11.6694502797732387   F   F   F
 53.5273669849414091 24.5303986307003896 11.6694502797732387   F   F   F
  0.0788230306550175 -0.0323765270506545 19.4253063910383439   T   T   T
 59.7172342750413989 42.8572246790003817 11.6694502797732387   F   F   F
 10.7592777243390945  3.0869036561158465 15.6476701992355736   F   F   F
 31.9083767991390950 27.5226717205158486 15.6476701992355736   F   F   F
 38.3563481431391011 27.5226717205158486 15.6476701992355736   F   F   F
 44.8043194871390966 27.5226717205158486 15.6476701992355736   F   F   F
 51.2522908311390992 27.5226717205158486 15.6476701992355736   F   F   F
 57.7002621751390947 27.5226717205158486 15.6476701992355736   F   F   F
 14.6277518638390944 33.6316137366158472 15.6476701992355736   F   F   F
 21.0757232078390935 33.6316137366158472 15.6476701992355736   F   F   F
 27.5236945518390961 33.6316137366158472 15.6476701992355736   F   F   F
 33.9716658958390951 33.6316137366158472 15.6476701992355736   F   F   F
 40.4196372398390977 33.6316137366158472 15.6476701992355736   F   F   F
 46.8676085838391003 33.6316137366158472 15.6476701992355736   F   F   F
 53.3155799278391029 33.6316137366158472 15.6476701992355736   F   F   F
 59.7635512718390984 33.6316137366158472 15.6476701992355736   F   F   F
 25.4604054551390959 27.5226717205158486 15.6476701992355736   F   F   F
 16.6910409605390946 39.7405557527158422 15.6476701992355736   F   F   F
 29.5869836485390962 39.7405557527158422 15.6476701992355736   F   F   F
 36.0349549925390988 39.7405557527158422 15.6476701992355736   F   F   F
 42.4829263365391014 39.7405557527158422 15.6476701992355736   F   F   F
 48.9308976805390969 39.7405557527158422 15.6476701992355736   F   F   F
 55.3788690245390995 39.7405557527158422 15.6476701992355736   F   F   F
 61.8268403685390950 39.7405557527158422 15.6476701992355736   F   F   F
 18.7543300572390947 45.8494977688158514 15.6476701992355736   F   F   F
 25.2023014012390973 45.8494977688158514 15.6476701992355736   F   F   F
 31.6502727452390964 45.8494977688158514 15.6476701992355736   F   F   F
 38.0982440892390954 45.8494977688158514 15.6476701992355736   F   F   F
 44.5462154332390980 45.8494977688158514 15.6476701992355736   F   F   F
 50.9941867772391006 45.8494977688158514 15.6476701992355736   F   F   F
 57.4421581212391104 45.8494977688158514 15.6476701992355736   F   F   F
 23.1390123045390936 39.7405557527158422 15.6476701992355736   F   F   F
  4.3113063803390945  3.0869036561158465 15.6476701992355736   F   F   F
 19.0124341111390969 27.5226717205158486 15.6476701992355736   F   F   F
 55.6369730784390839 21.4137297044158466 15.6476701992355736   F   F   F
 17.2072490683390953  3.0869036561158465 15.6476701992355736   F   F   F
 23.6552204123390943  3.0869036561158465 15.6476701992355736   F   F   F
 30.1031917563390969  3.0869036561158465 15.6476701992355736   F   F   F
 36.5511631003390960  3.0869036561158465 15.6476701992355736   F   F   F
 42.9991344443390986  3.0869036561158465 15.6476701992355736   F   F   F
 49.4471057883390941  3.0869036561158465 15.6476701992355736   F   F   F
  6.3745954770390947  9.1958456722158477 15.6476701992355736   F   F   F
 12.8225668210390946  9.1958456722158477 15.6476701992355736   F   F   F
 25.7185095090390945  9.1958456722158477 15.6476701992355736   F   F   F
 32.1664808530390971  9.1958456722158477 15.6476701992355736   F   F   F
 38.6144521970390997  9.1958456722158477 15.6476701992355736   F   F   F
 45.0624235410391023  9.1958456722158477 15.6476701992355736   F   F   F
 51.5103948850390978  9.1958456722158477 15.6476701992355736   F   F   F
 12.5644627671390960 27.5226717205158486 15.6476701992355736   F   F   F
  8.4378845737390940 15.3047876883158462 15.6476701992355736   F   F   F
 21.3338272617390956 15.3047876883158462 15.6476701992355736   F   F   F
 27.7817986057390947 15.3047876883158462 15.6476701992355736   F   F   F
 34.2297699497390937 15.3047876883158462 15.6476701992355736   F   F   F
 40.6777412937390963 15.3047876883158462 15.6476701992355736   F   F   F
 47.1257126377390989 15.3047876883158462 15.6476701992355736   F   F   F
 53.5736839817390944 15.3047876883158462 15.6476701992355736   F   F   F
 10.5011736704390941 21.4137297044158466 15.6476701992355736   F   F   F
 16.9491450144390932 21.4137297044158466 15.6476701992355736   F   F   F
 23.3971163584390958 21.4137297044158466 15.6476701992355736   F   F   F
 29.8450877024390948 21.4137297044158466 15.6476701992355736   F   F   F
 36.2930590464390974 21.4137297044158466 15.6476701992355736   F   F   F
 42.7410303904390929 21.4137297044158466 15.6476701992355736   F   F   F
 49.1890017344390884 21.4137297044158466 15.6476701992355736   F   F   F
 14.8858559177390948 15.3047876883158462 15.6476701992355736   F   F   F
  3.2919071389349108  0.0462247514751413 13.7357066000366093   F   F   F
  9.7398784829349125  0.0462247514751413 13.7357066000366093   F   F   F
 16.1878498269349116  0.0462247514751413 13.7357066000366093   F   F   F
 37.4287894774184551 24.4489211897699263 21.2883641901330094   T   T   T
 44.0310154102780729 24.6803877121972697 21.3183515830895445   T   T   T
 49.9036800560909199 24.8511835601738760 21.4052525915881517   T   T   T
 56.5639840150113642 24.5245944405843055 21.3352888083424226   T   T   T
 13.4012399252615637 30.9266319930218394 21.4441618587485507   T   T   T
 19.8439477160131155 30.7897196692216717 21.2515813882872457   T   T   T
 26.5613312420146990 30.5604972855605368 21.2134359363840801   T   T   T
 32.9526127614038202 30.4796085234193761 21.2256411189510743   T   T   T
 39.2623782722481636 30.6264513460912973 21.1972784422547420   T   T   T
 45.9609484381699787 30.7493085780851061 21.3645092208741687   T   T   T
 52.3863474058025034 30.6935561966696291 21.3011835347268175   T   T   T
 59.0335070007435405 30.6961247383769837 21.3083495889040151   T   T   T
 15.5866337564563651 36.8014846028146891 21.1290074104215364   T   T   T
 30.8463083014781070 24.3650885874896623 21.3020535780966078   T   T   T
 21.8630507968490591 36.4509099667369156 20.6384409562599345   T   T   T
 35.2460292624833826 36.9025650394981639 21.2738650173154262   T   T   T
 40.9487190110664514 36.6968857213137554 21.2961500063852647   T   T   T
 47.6905952146239898 36.5899511938229907 21.0431206260604995   T   T   T
 54.3445360899898020 36.7921717422008783 21.2351378933843264   T   T   T
 60.8317936929548679 36.8969546593857203 21.3711181386683968   T   T   T
 17.4828201438174595 42.8800364830749174 21.0900010035048098   T   T   T
 24.4824262973859987 42.9913112475842070 21.2859230357345126   T   T   T
 30.3043133136585290 42.8817525266847781 21.3233900507502625   T   T   T
 36.7576385605372664 42.9273983720555776 20.9624807941450406   T   T   T
 43.7411418685050393 42.6956408911989413 21.2284133488652458   T   T   T
 49.6862817622642297 42.8737571714254528 21.3327048641162449   T   T   T
 56.4361420758666128 42.9212769084809338 21.1777997613925493   T   T   T
 63.1713430431911078 42.7695761122507463 21.3757950152512777   T   T   T
 28.5705787672408569 36.5832613419591368 21.2432437573304433   T   T   T
  7.2066494316450838  2.8100591227635059 10.5076069091843713   F   F   F
 24.1298717924150061 24.6737431764442974 21.4750542524215078   T   T   T
 11.5843704198007043 24.5757017776207469 21.1236572127197242   T   T   T
 29.2073382676182085 -0.0358702923887863 21.3688897334232450   T   T   T
 35.4065874405381464  0.1396754383714096 20.9902641774800642   T   T   T
 42.2104707474321827  0.0768766362609151 21.0686971862282100   T   T   T
 48.1044571227177400  0.1027989426446610 21.2726057376825004   T   T   T
  5.3133507787034429  6.1992373595798247 21.2647017690203946   T   T   T
 11.5823967737295224  5.9724709753222083 21.0806905534321345   T   T   T
 18.3758111705923923  6.6790098409501271 21.2168400920916014   T   T   T
 24.9624074261145985  6.0661739613708185 21.3198883243685877   T   T   T
 31.6633714519245366  5.9939343232472515 21.4359465574503432   T   T   T
 37.3797929235541417  5.8774092861601517 21.0240253140597133   T   T   T
 44.5082697777747498  6.2088514061048921 21.2693077292086841   T   T   T
 49.9994759096061614  5.9939133785121301 21.3331161108286018   T   T   T
  7.8724658999794874 12.2118770538473598 21.3095104160854589   T   T   T
 18.2679459356013822 24.5856116648790426 21.2856962107625307   T   T   T
 13.3088750319446927 12.2808051165681693 20.9422400382154770   T   T   T
 26.9462012479020956 12.1853765319812748 21.1019824601538986   T   T   T
 32.9191170385731553 11.9920330572024358 21.0533126104178940   T   T   T
 39.6232187346417817 12.3353448818843461 21.1595106345152786   T   T   T
 45.9319181062962372 12.4097247364857015 21.2324664403837851   T   T   T
 52.6387052195935325 12.2830192939532168 21.1766423264095494   T   T   T
  9.2755638499064617 18.4621982066274697 21.1737608096942935   T   T   T
 15.7834360857025633 18.2340997983865662 21.1197706110584136   T   T   T
 22.3435433884829919 18.3315467214211623 21.0747587767058455   T   T   T
 28.4008160098800069 18.2891956872869343 20.9900361117151881   T   T   T
 35.1716111589828060 18.1618678972149930 21.1192018624546520   T   T   T
 42.0408548247943088 18.3894182943474895 21.2357364927196208   T   T   T
 47.8301978702982140 18.3879729702865298 21.2077114025598412   T   T   T
 54.5962161761079656 18.4037641929632336 21.2354782020223354   T   T   T
 20.2439639160423752 12.2138587533882212 21.0953607311570295   T   T   T
 22.5345063351048509  0.0033833518463146 21.1983523408815273   T   T   T
 13.6546207756450855  2.8100591227635059 10.5076069091843713   F   F   F
 26.5505634636450836  2.8100591227635059 10.5076069091843713   F   F   F
 41.2516911944450868 27.2458271871635063 10.5076069091843713   F   F   F
 47.6996625384450823 27.2458271871635063 10.5076069091843713   F   F   F
 54.1476338824450920 27.2458271871635063 10.5076069091843713   F   F   F
 60.5956052264450875 27.2458271871635063 10.5076069091843713   F   F   F
 17.5230949151450837 33.3547692032635084 10.5076069091843713   F   F   F
 23.9710662591450898 33.3547692032635084 10.5076069091843713   F   F   F
 30.4190376031450889 33.3547692032635084 10.5076069091843713   F   F   F
 36.8670089471450879 33.3547692032635084 10.5076069091843713   F   F   F
 43.3149802911450834 33.3547692032635084 10.5076069091843713   F   F   F
 49.7629516351450789 33.3547692032635084 10.5076069091843713   F   F   F
 56.2109229791450815 33.3547692032635084 10.5076069091843713   F   F   F
 62.6588943231450770 33.3547692032635084 10.5076069091843713   F   F   F
 19.5863840118450803 39.4637112193635033 10.5076069091843713   F   F   F
 34.8037198504450842 27.2458271871635063 10.5076069091843713   F   F   F
 26.0343553558450864 39.4637112193635033 10.5076069091843713   F   F   F
 38.9302980438450845 39.4637112193635033 10.5076069091843713   F   F   F
 45.3782693878450871 39.4637112193635033 10.5076069091843713   F   F   F
 51.8262407318450826 39.4637112193635033 10.5076069091843713   F   F   F
 58.2742120758450852 39.4637112193635033 10.5076069091843713   F   F   F
 64.7221834198450807 39.4637112193635033 10.5076069091843713   F   F   F
 21.6496731085450804 45.5726532354634983 10.5076069091843713   F   F   F
 28.0976444525450866 45.5726532354634983 10.5076069091843713   F   F   F
 34.5456157965450856 45.5726532354634983 10.5076069091843713   F   F   F
 40.9935871405450882 45.5726532354634983 10.5076069091843713   F   F   F
 47.4415584845450837 45.5726532354634983 10.5076069091843713   F   F   F
 53.8895298285450792 45.5726532354634983 10.5076069091843713   F   F   F
 60.3375011725450818 45.5726532354634983 10.5076069091843713   F   F   F
 66.7854725165450844 45.5726532354634983 10.5076069091843713   F   F   F
 32.4823266998450890 39.4637112193635033 10.5076069091843713   F   F   F
 20.1025921196450881  2.8100591227635059 10.5076069091843713   F   F   F
 28.3557485064450887 27.2458271871635063 10.5076069091843713   F   F   F
 15.4598058184450835 27.2458271871635063 10.5076069091843713   F   F   F
 32.9985348076450862  2.8100591227635059 10.5076069091843713   F   F   F
 39.4465061516450817  2.8100591227635059 10.5076069091843713   F   F   F
 45.8944774956450843  2.8100591227635059 10.5076069091843713   F   F   F
 52.3424488396450798  2.8100591227635059 10.5076069091843713   F   F   F
  9.2699385283450830  8.9190011388635053 10.5076069091843713   F   F   F
 15.7179098723450892  8.9190011388635053 10.5076069091843713   F   F   F
 22.1658812163450882  8.9190011388635053 10.5076069091843713   F   F   F
 28.6138525603450837  8.9190011388635053 10.5076069091843713   F   F   F
 35.0618239043450828  8.9190011388635053 10.5076069091843713   F   F   F
 41.5097952483450783  8.9190011388635053 10.5076069091843713   F   F   F
 47.9577665923450809  8.9190011388635053 10.5076069091843713   F   F   F
 54.4057379363450764  8.9190011388635053 10.5076069091843713   F   F   F
 11.3332276250450832 15.0279431549635074 10.5076069091843713   F   F   F
 21.9077771624450897 27.2458271871635063 10.5076069091843713   F   F   F
 17.7811989690450858 15.0279431549635074 10.5076069091843713   F   F   F
 30.6771416570450839 15.0279431549635074 10.5076069091843713   F   F   F
 37.1251130010450865 15.0279431549635074 10.5076069091843713   F   F   F
 43.5730843450450820 15.0279431549635074 10.5076069091843713   F   F   F
 50.0210556890450846 15.0279431549635074 10.5076069091843713   F   F   F
 56.4690270330450801 15.0279431549635074 10.5076069091843713   F   F   F
 13.3965167217450833 21.1368851710635077 10.5076069091843713   F   F   F
 19.8444880657450859 21.1368851710635077 10.5076069091843713   F   F   F
 26.2924594097450885 21.1368851710635077 10.5076069091843713   F   F   F
 32.7404307537450876 21.1368851710635077 10.5076069091843713   F   F   F
 39.1884020977450831 21.1368851710635077 10.5076069091843713   F   F   F
 45.6363734417450786 21.1368851710635077 10.5076069091843713   F   F   F
 52.0843447857450812 21.1368851710635077 10.5076069091843713   F   F   F
 58.5323161297450767 21.1368851710635077 10.5076069091843713   F   F   F
 24.2291703130450884 15.0279431549635074 10.5076069091843713   F   F   F
 16.0444753302303269  0.2567195705550367 21.0829265633754304   T   T   T
  9.1454849047525890  0.1693190577684389 21.1943275192560385   T   T   T
  3.5886878695718152 -0.1212625911524860 21.2269825641666365   T   T   T
 30.8889775577349113 24.4819928158751452 13.7357066000366093   F   F   F
 37.3369489017349068 24.4819928158751452 13.7357066000366093   F   F   F
 43.7849202457349094 24.4819928158751452 13.7357066000366093   F   F   F
 50.2328915897349120 24.4819928158751452 13.7357066000366093   F   F   F
 56.6808629337349146 24.4819928158751452 13.7357066000366093   F   F   F
 13.6083526224349107 30.5909348319751402 13.7357066000366093   F   F   F
 20.0563239664349133 30.5909348319751402 13.7357066000366093   F   F   F
 26.5042953104349124 30.5909348319751402 13.7357066000366093   F   F   F
 32.9522666544349150 30.5909348319751402 13.7357066000366093   F   F   F
 39.4002379984349034 30.5909348319751402 13.7357066000366093   F   F   F
 45.8482093424349060 30.5909348319751402 13.7357066000366093   F   F   F
 52.2961806864349086 30.5909348319751402 13.7357066000366093   F   F   F
 58.7441520304349112 30.5909348319751402 13.7357066000366093   F   F   F
 24.4410062137349122 24.4819928158751452 13.7357066000366093   F   F   F
 15.6716417191349109 36.6998768480751423 13.7357066000366093   F   F   F
 28.5675844071349125 36.6998768480751423 13.7357066000366093   F   F   F
 35.0155557511349116 36.6998768480751423 13.7357066000366093   F   F   F
 41.4635270951349071 36.6998768480751423 13.7357066000366093   F   F   F
 47.9114984391349097 36.6998768480751423 13.7357066000366093   F   F   F
 54.3594697831349052 36.6998768480751423 13.7357066000366093   F   F   F
 60.8074411271349149 36.6998768480751423 13.7357066000366093   F   F   F
 17.7349308158349110 42.8088188641751373 13.7357066000366093   F   F   F
 24.1829021598349136 42.8088188641751373 13.7357066000366093   F   F   F
 30.6308735038349127 42.8088188641751373 13.7357066000366093   F   F   F
 37.0788448478349153 42.8088188641751373 13.7357066000366093   F   F   F
 43.5268161918349037 42.8088188641751373 13.7357066000366093   F   F   F
 49.9747875358349063 42.8088188641751373 13.7357066000366093   F   F   F
 56.4227588798349089 42.8088188641751373 13.7357066000366093   F   F   F
 22.1196130631349135 36.6998768480751423 13.7357066000366093   F   F   F
 62.8707302238349115 42.8088188641751373 13.7357066000366093   F   F   F
 17.9930348697349132 24.4819928158751452 13.7357066000366093   F   F   F
 54.6175738370349109 18.3730507997751431 13.7357066000366093   F   F   F
 22.6358211709349106  0.0462247514751413 13.7357066000366093   F   F   F
 29.0837925149349061  0.0462247514751413 13.7357066000366093   F   F   F
 35.5317638589349087  0.0462247514751413 13.7357066000366093   F   F   F
 41.9797352029349113  0.0462247514751413 13.7357066000366093   F   F   F
 48.4277065469349139  0.0462247514751413 13.7357066000366093   F   F   F
  5.3551962356349110  6.1551667675751425 13.7357066000366093   F   F   F
 11.8031675796349127  6.1551667675751425 13.7357066000366093   F   F   F
 18.2511389236349117  6.1551667675751425 13.7357066000366093   F   F   F
 24.6991102676349108  6.1551667675751425 13.7357066000366093   F   F   F
 31.1470816116349063  6.1551667675751425 13.7357066000366093   F   F   F
 37.5950529556349053  6.1551667675751425 13.7357066000366093   F   F   F
 44.0430242996349079  6.1551667675751425 13.7357066000366093   F   F   F
 50.4909956436349106  6.1551667675751425 13.7357066000366093   F   F   F
 11.5450635257349123 24.4819928158751452 13.7357066000366093   F   F   F
  7.4184853323349111 12.2641087836751410 13.7357066000366093   F   F   F
 20.3144280203349119 12.2641087836751410 13.7357066000366093   F   F   F
 26.7623993643349110 12.2641087836751410 13.7357066000366093   F   F   F
 33.2103707083349065 12.2641087836751410 13.7357066000366093   F   F   F
 39.6583420523349091 12.2641087836751410 13.7357066000366093   F   F   F
 46.1063133963349117 12.2641087836751410 13.7357066000366093   F   F   F
 52.5542847403349143 12.2641087836751410 13.7357066000366093   F   F   F
  9.4817744290349104 18.3730507997751431 13.7357066000366093   F   F   F
 15.9297457730349112 18.3730507997751431 13.7357066000366093   F   F   F
 22.3777171170349121 18.3730507997751431 13.7357066000366093   F   F   F
 28.8256884610349111 18.3730507997751431 13.7357066000366093   F   F   F
 35.2736598050349102 18.3730507997751431 13.7357066000366093   F   F   F
 41.7216311490349057 18.3730507997751431 13.7357066000366093   F   F   F
 48.1696024930349083 18.3730507997751431 13.7357066000366093   F   F   F
 13.8664566763349111 12.2641087836751410 13.7357066000366093   F   F   F
  1.0873205922756009  3.0869036561158465 17.5448402050934327   F   F   F
  7.5352919362756010  3.0869036561158465 17.5448402050934327   F   F   F
 13.9832632802755992  3.0869036561158465 17.5448402050934327   F   F   F
 35.1323623550756068 27.5226717205158486 17.5448402050934327   F   F   F
 41.5803336990756023 27.5226717205158486 17.5448402050934327   F   F   F
 48.0283050430756049 27.5226717205158486 17.5448402050934327   F   F   F
 54.4762763870756004 27.5226717205158486 17.5448402050934327   F   F   F
 11.4037660757756001 33.6316137366158472 17.5448402050934327   F   F   F
 17.8517374197756062 33.6316137366158472 17.5448402050934327   F   F   F
 24.2997087637755982 33.6316137366158472 17.5448402050934327   F   F   F
 30.7476801077756043 33.6316137366158472 17.5448402050934327   F   F   F
 37.1956514517756034 33.6316137366158472 17.5448402050934327   F   F   F
 43.6436227957756060 33.6316137366158472 17.5448402050934327   F   F   F
 50.0915941397756086 33.6316137366158472 17.5448402050934327   F   F   F
 56.5395654837756041 33.6316137366158472 17.5448402050934327   F   F   F
 13.4670551724756002 39.7405557527158422 17.5448402050934327   F   F   F
 28.6843910110756006 27.5226717205158486 17.5448402050934327   F   F   F
 19.9150265164756064 39.7405557527158422 17.5448402050934327   F   F   F
 32.8109692044756045 39.7405557527158422 17.5448402050934327   F   F   F
 39.2589405484756071 39.7405557527158422 17.5448402050934327   F   F   F
 45.7069118924756026 39.7405557527158422 17.5448402050934327   F   F   F
 52.1548832364756052 39.7405557527158422 17.5448402050934327   F   F   F
 58.6028545804756007 39.7405557527158422 17.5448402050934327   F   F   F
 15.5303442691756022 45.8494977688158514 17.5448402050934327   F   F   F
 21.9783156131756030 45.8494977688158514 17.5448402050934327   F   F   F
 28.4262869571756021 45.8494977688158514 17.5448402050934327   F   F   F
 34.8742583011756011 45.8494977688158514 17.5448402050934327   F   F   F
 41.3222296451756037 45.8494977688158514 17.5448402050934327   F   F   F
 47.7702009891756134 45.8494977688158514 17.5448402050934327   F   F   F
 54.2181723331756089 45.8494977688158514 17.5448402050934327   F   F   F
 60.6661436771756044 45.8494977688158514 17.5448402050934327   F   F   F
 26.3629978604755983 39.7405557527158422 17.5448402050934327   F   F   F
 22.2364196670756016 27.5226717205158486 17.5448402050934327   F   F   F
 15.7884483230756025 27.5226717205158486 17.5448402050934327   F   F   F
  9.3404769790756017 27.5226717205158486 17.5448402050934327   F   F   F
 20.4312346242756000  3.0869036561158465 17.5448402050934327   F   F   F
 26.8792059682756026  3.0869036561158465 17.5448402050934327   F   F   F
 33.3271773122756017  3.0869036561158465 17.5448402050934327   F   F   F
 39.7751486562756043  3.0869036561158465 17.5448402050934327   F   F   F
 46.2231200002755998  3.0869036561158465 17.5448402050934327   F   F   F
  3.1506096889756012  9.1958456722158477 17.5448402050934327   F   F   F
  9.5985810329756021  9.1958456722158477 17.5448402050934327   F   F   F
 16.0465523769756011  9.1958456722158477 17.5448402050934327   F   F   F
 22.4945237209756002  9.1958456722158477 17.5448402050934327   F   F   F
 28.9424950649756028  9.1958456722158477 17.5448402050934327   F   F   F
 35.3904664089756054  9.1958456722158477 17.5448402050934327   F   F   F
 41.8384377529756080  9.1958456722158477 17.5448402050934327   F   F   F
 48.2864090969756035  9.1958456722158477 17.5448402050934327   F   F   F
  5.2138987856756005 15.3047876883158462 17.5448402050934327   F   F   F
 11.6618701296756004 15.3047876883158462 17.5448402050934327   F   F   F
 18.1098414736755942 15.3047876883158462 17.5448402050934327   F   F   F
 24.5578128176756003 15.3047876883158462 17.5448402050934327   F   F   F
 31.0057841616756029 15.3047876883158462 17.5448402050934327   F   F   F
 37.4537555056756020 15.3047876883158462 17.5448402050934327   F   F   F
 43.9017268496756046 15.3047876883158462 17.5448402050934327   F   F   F
 50.3496981936756001 15.3047876883158462 17.5448402050934327   F   F   F
  7.2771878823756007 21.4137297044158466 17.5448402050934327   F   F   F
 13.7251592263756006 21.4137297044158466 17.5448402050934327   F   F   F
 20.1731305703755943 21.4137297044158466 17.5448402050934327   F   F   F
 26.6211019143756005 21.4137297044158466 17.5448402050934327   F   F   F
 33.0690732583756031 21.4137297044158466 17.5448402050934327   F   F   F
 39.5170446023755915 21.4137297044158466 17.5448402050934327   F   F   F
 45.9650159463756012 21.4137297044158466 17.5448402050934327   F   F   F
 52.4129872903755967 21.4137297044158466 17.5448402050934327   F   F   F
 51.2059738343413997 36.7482826629003867 11.6694502797732387   F   F   F
 57.6539451783414023 36.7482826629003867 11.6694502797732387   F   F   F
  4.7389851237542686  5.8404637154923318 10.8100903574230109   F   F   F
 42.3391170567392123 47.9462515543366763 22.4032330762270249   T   T   T
 13.8698097699267802 12.2611804134481943 17.5557804298871964   F   F   F
 20.3177811139267810 12.2611804134481943 17.5557804298871964   F   F   F
 26.7657524579267800 12.2611804134481943 17.5557804298871964   F   F   F
 33.2137238019267755 12.2611804134481943 17.5557804298871964   F   F   F
 39.6616951459267710 12.2611804134481943 17.5557804298871964   F   F   F
 46.1096664899267665 12.2611804134481943 17.5557804298871964   F   F   F
 52.5576378339267762 12.2611804134481943 17.5557804298871964   F   F   F
  9.4851275226267795 18.3701224295481964 17.5557804298871964   F   F   F
 15.9330988666267803 18.3701224295481964 17.5557804298871964   F   F   F
 22.3810702106267811 18.3701224295481964 17.5557804298871964   F   F   F
 28.8290415546267802 18.3701224295481964 17.5557804298871964   F   F   F
  7.4218384259267793 12.2611804134481943 17.5557804298871964   F   F   F
 35.2770128986267792 18.3701224295481964 17.5557804298871964   F   F   F
 48.1729555866267773 18.3701224295481964 17.5557804298871964   F   F   F
 54.6209269306267799 18.3701224295481964 17.5557804298871964   F   F   F
 11.5484166193267779 24.4790644456481914 17.5557804298871964   F   F   F
 17.9963879633267787 24.4790644456481914 17.5557804298871964   F   F   F
 24.4443593073267813 24.4790644456481914 17.5557804298871964   F   F   F
 30.8923306513267875 24.4790644456481914 17.5557804298871964   F   F   F
 37.3403019953267759 24.4790644456481914 17.5557804298871964   F   F   F
 43.7882733393267785 24.4790644456481914 17.5557804298871964   F   F   F
 50.2362446833267740 24.4790644456481914 17.5557804298871964   F   F   F
 56.6842160273267766 24.4790644456481914 17.5557804298871964   F   F   F
 13.6117057160267780 30.5880064617481935 17.5557804298871964   F   F   F
 41.7249842426267818 18.3701224295481964 17.5557804298871964   F   F   F
 50.4943487372267796  6.1522383973481931 17.5557804298871964   F   F   F
 44.0463773932267770  6.1522383973481931 17.5557804298871964   F   F   F
 37.5984060492267815  6.1522383973481931 17.5557804298871964   F   F   F
 39.2684806931103623 39.7516694638054702 13.7775523580810564   F   F   F
 45.7164520371103507 39.7516694638054702 13.7775523580810564   F   F   F
 52.1644233811103533 39.7516694638054702 13.7775523580810564   F   F   F
 58.6123947251103488 39.7516694638054702 13.7775523580810564   F   F   F
 15.5398844138103520 45.8606114799054723 13.7775523580810564   F   F   F
 21.9878557578103511 45.8606114799054723 13.7775523580810564   F   F   F
 28.4358271018103537 45.8606114799054723 13.7775523580810564   F   F   F
 34.8837984458103634 45.8606114799054723 13.7775523580810564   F   F   F
 41.3317697898103518 45.8606114799054723 13.7775523580810564   F   F   F
 47.7797411338103544 45.8606114799054723 13.7775523580810564   F   F   F
 54.2277124778103641 45.8606114799054723 13.7775523580810564   F   F   F
 60.6756838218103596 45.8606114799054723 13.7775523580810564   F   F   F
  3.2952602325267786  0.0432963812481926 17.5557804298871964   F   F   F
  9.7432315765267798  0.0432963812481926 17.5557804298871964   F   F   F
 16.1912029205267807  0.0432963812481926 17.5557804298871964   F   F   F
 22.6391742645267797  0.0432963812481926 17.5557804298871964   F   F   F
 29.0871456085267788  0.0432963812481926 17.5557804298871964   F   F   F
 35.5351169525267778  0.0432963812481926 17.5557804298871964   F   F   F
 41.9830882965267733  0.0432963812481926 17.5557804298871964   F   F   F
 48.4310596405267759  0.0432963812481926 17.5557804298871964   F   F   F
  5.3585493292267783  6.1522383973481931 17.5557804298871964   F   F   F
 11.8065206732267800  6.1522383973481931 17.5557804298871964   F   F   F
 18.2544920172267808  6.1522383973481931 17.5557804298871964   F   F   F
 24.7024633612267799  6.1522383973481931 17.5557804298871964   F   F   F
 31.1504347052267789  6.1522383973481931 17.5557804298871964   F   F   F
 20.0596770600267789 30.5880064617481935 17.5557804298871964   F   F   F
 32.8205093491103526 39.7516694638054702 13.7775523580810564   F   F   F
 26.5076484040267815 30.5880064617481935 17.5557804298871964   F   F   F
 39.4035910920267796 30.5880064617481935 17.5557804298871964   F   F   F
 48.4773676384384729  9.2666650534296533 21.2814236608912033   T   T   T
 24.7616889529005704 15.2481142082540853 21.3011065044131556   T   T   T
 43.8923425900181883 15.1074862310889735 21.3156917383788702   T   T   T
 50.4167626811696579 15.2942912903238319 21.3679648235882667   T   T   T
  7.2150587758526417 21.4205095526931508 21.2250100889148321   T   T   T
 13.7322762346084133 21.4583680076291579 21.2824487765154871   T   T   T
 20.3321719604715909 21.3924614952309859 21.1685710197439505   T   T   T
 33.1029059476230287 21.1778911230309674 21.2663880147998690   T   T   T
 39.7456109772692727 21.3084839558858725 21.3614135772103033   T   T   T
 46.0312136580676494 21.4686528554559111 21.1077266155226191   T   T   T
 52.4844080943017204 21.3753400424545070 21.3077303354986185   T   T   T
 42.1614324217772989  9.0082493986555789 21.3116302304284808   T   T   T
  9.5581564242142019 27.4471404387652420 21.1516635882735642   T   T   T
 22.2646910915138463 27.6493133020533755 21.2302529970392264   T   T   T
 28.7943497085903743 27.2138329196137327 21.3093497734191182   T   T   T
 35.3240175807611791 27.3037920318314740 21.2383236654388341   T   T   T
 41.7394616895618640 27.3593181153909946 21.3081719889860963   T   T   T
 48.0328914156197655 27.6259804533515840 21.2050693018496297   T   T   T
 54.5379272613562662 27.4142438316501575 21.3421058881474295   T   T   T
 11.4087620569323516 33.7010711500348989 21.2219716092489392   T   T   T
 17.7442039214750409 33.5692296086098665 21.2527783208347927   T   T   T
 24.3780129792816957 33.6096685538594571 21.3282091670282057   T   T   T
 37.2208910763997665 33.5073066259590959 21.2580485511219877   T   T   T
 43.7229229004136855 33.6681643788074467 21.3649908097998420   T   T   T
 16.0442081178393749 27.3543050141346953 21.2659315815795260   T   T   T
 34.9930424901293193  8.9966546455525513 21.2696379452949067   T   T   T
 22.8079765465810524  9.0449094507141048 21.3304569846879239   T   T   T
 16.0890638388913452  9.1479055469803061 21.2189843917304799   T   T   T
 45.8515624360267822 30.5880064617481935 17.5557804298871964   F   F   F
 52.2995337800267777 30.5880064617481935 17.5557804298871964   F   F   F
 58.7475051240267803 30.5880064617481935 17.5557804298871964   F   F   F
 15.6749948127267782 36.6969484778481956 17.5557804298871964   F   F   F
 22.1229661567267790 36.6969484778481956 17.5557804298871964   F   F   F
 28.5709375007267816 36.6969484778481956 17.5557804298871964   F   F   F
 35.0189088447267878 36.6969484778481956 17.5557804298871964   F   F   F
 41.4668801887267762 36.6969484778481956 17.5557804298871964   F   F   F
 68.1317619439355013 48.0624584176407765 22.3502568625645139   T   T   T
 54.3628228767267743 36.6969484778481956 17.5557804298871964   F   F   F
 60.8107942207267769 36.6969484778481956 17.5557804298871964   F   F   F
 17.7382839094267837 42.8058904939481906 17.5557804298871964   F   F   F
 24.1862552534267792 42.8058904939481906 17.5557804298871964   F   F   F
 30.6342265974267818 42.8058904939481906 17.5557804298871964   F   F   F
 37.0821979414267773 42.8058904939481906 17.5557804298871964   F   F   F
 43.5301692854267870 42.8058904939481906 17.5557804298871964   F   F   F
 49.9781406294267896 42.8058904939481906 17.5557804298871964   F   F   F
 56.4261119734267851 42.8058904939481906 17.5557804298871964   F   F   F
 62.8740833174267806 42.8058904939481906 17.5557804298871964   F   F   F
 20.7837722347960252  2.9426269502435027 21.2097808125519371   T   T   T
 27.1147501672774567  2.8500905198418089 21.3718123528716362   T   T   T
 39.7392739058442857  2.7812171351452633 21.1978774121832423   T   T   T
 46.2696085391183161  3.0196977614043159 21.2458261810057749   T   T   T
  3.2535101700376101  9.1613012162160352 21.2290234789622438   T   T   T
  9.7190119183582944  9.1138893214903760 21.3396197294910657   T   T   T
 32.9556197480267770 30.5880064617481935 17.5557804298871964   F   F   F
 26.3725380051103535 39.7516694638054702 13.7775523580810564   F   F   F
 19.9245666611103509 39.7516694638054702 13.7775523580810564   F   F   F
 13.4765953171103519 39.7516694638054702 13.7775523580810564   F   F   F
 49.6166804778542598 24.1672897637923327 10.8100903574230109   F   F   F
 56.0646518218542695 24.1672897637923327 10.8100903574230109   F   F   F
 12.9921415105542710 30.2762317798923348 10.8100903574230109   F   F   F
 19.4401128545542754 30.2762317798923348 10.8100903574230109   F   F   F
 25.8880841985542745 30.2762317798923348 10.8100903574230109   F   F   F
 32.3360555425542842 30.2762317798923348 10.8100903574230109   F   F   F
 38.7840268865542726 30.2762317798923348 10.8100903574230109   F   F   F
 45.2319982305542752 30.2762317798923348 10.8100903574230109   F   F   F
 51.6799695745542707 30.2762317798923348 10.8100903574230109   F   F   F
 58.1279409185542733 30.2762317798923348 10.8100903574230109   F   F   F
 15.0554306072542712 36.3851737959923369 10.8100903574230109   F   F   F
 43.1687091338542643 24.1672897637923327 10.8100903574230109   F   F   F
 21.5034019512542756 36.3851737959923369 10.8100903574230109   F   F   F
 34.3993446392542737 36.3851737959923369 10.8100903574230109   F   F   F
 40.8473159832542763 36.3851737959923369 10.8100903574230109   F   F   F
 47.2952873272542860 36.3851737959923369 10.8100903574230109   F   F   F
 53.7432586712542815 36.3851737959923369 10.8100903574230109   F   F   F
 60.1912300152542770 36.3851737959923369 10.8100903574230109   F   F   F
 17.1187197039542696 42.4941158120923390 10.8100903574230109   F   F   F
 23.5666910479542757 42.4941158120923390 10.8100903574230109   F   F   F
 30.0146623919542748 42.4941158120923390 10.8100903574230109   F   F   F
 36.4626337359542845 42.4941158120923390 10.8100903574230109   F   F   F
 42.9106050799542729 42.4941158120923390 10.8100903574230109   F   F   F
 49.3585764239542755 42.4941158120923390 10.8100903574230109   F   F   F
 27.9513732952542746 36.3851737959923369 10.8100903574230109   F   F   F
 36.7207377898542688 24.1672897637923327 10.8100903574230109   F   F   F
 30.2727664458542733 24.1672897637923327 10.8100903574230109   F   F   F
 23.8247951018542743 24.1672897637923327 10.8100903574230109   F   F   F
 11.1869564677542748  5.8404637154923318 10.8100903574230109   F   F   F
 17.6349278117542738  5.8404637154923318 10.8100903574230109   F   F   F
 24.0828991557542729  5.8404637154923318 10.8100903574230109   F   F   F
 30.5308704997542719  5.8404637154923318 10.8100903574230109   F   F   F
 36.9788418437542745  5.8404637154923318 10.8100903574230109   F   F   F
 43.4268131877542700  5.8404637154923318 10.8100903574230109   F   F   F
 49.8747845317542726  5.8404637154923318 10.8100903574230109   F   F   F
  6.8022742204542697 11.9494057315923321 10.8100903574230109   F   F   F
 13.2502455644542749 11.9494057315923321 10.8100903574230109   F   F   F
 19.6982169084542740 11.9494057315923321 10.8100903574230109   F   F   F
 26.1461882524542730 11.9494057315923321 10.8100903574230109   F   F   F
 32.5941595964542756 11.9494057315923321 10.8100903574230109   F   F   F
 39.0421309404542853 11.9494057315923321 10.8100903574230109   F   F   F
 45.4901022844542808 11.9494057315923321 10.8100903574230109   F   F   F
 51.9380736284542763 11.9494057315923321 10.8100903574230109   F   F   F
  8.8655633171542672 18.0583477476923271 10.8100903574230109   F   F   F
 15.3135346611542733 18.0583477476923271 10.8100903574230109   F   F   F
 21.7615060051542706 18.0583477476923271 10.8100903574230109   F   F   F
 28.2094773491542696 18.0583477476923271 10.8100903574230109   F   F   F
 34.6574486931542722 18.0583477476923271 10.8100903574230109   F   F   F
 41.1054200371542748 18.0583477476923271 10.8100903574230109   F   F   F
 47.5533913811542703 18.0583477476923271 10.8100903574230109   F   F   F
 54.0013627251542729 18.0583477476923271 10.8100903574230109   F   F   F
 10.9288524138542691 24.1672897637923327 10.8100903574230109   F   F   F
 17.3768237578542752 24.1672897637923327 10.8100903574230109   F   F   F
 55.8065477679542710 42.4941158120923390 10.8100903574230109   F   F   F
 62.2545191119542736 42.4941158120923390 10.8100903574230109   F   F   F
 19.1820088006542697 48.6030578281923340 10.8100903574230109   F   F   F
 25.6299801446542759 48.6030578281923340 10.8100903574230109   F   F   F
 50.3592383383103481 15.3159013994054689 13.7775523580810564   F   F   F
  7.2867280270103514 21.4248434155054710 13.7775523580810564   F   F   F
 13.7346993710103504 21.4248434155054710 13.7775523580810564   F   F   F
 20.1826707150103530 21.4248434155054710 13.7775523580810564   F   F   F
 26.6306420590103521 21.4248434155054710 13.7775523580810564   F   F   F
 33.0786134030103511 21.4248434155054710 13.7775523580810564   F   F   F
 39.5265847470103537 21.4248434155054710 13.7775523580810564   F   F   F
 45.9745560910103563 21.4248434155054710 13.7775523580810564   F   F   F
 52.4225274350103518 21.4248434155054710 13.7775523580810564   F   F   F
  9.3500171237103515 27.5337854316054695 13.7775523580810564   F   F   F
 15.7979884677103506 27.5337854316054695 13.7775523580810564   F   F   F
 22.2459598117103532 27.5337854316054695 13.7775523580810564   F   F   F
 28.6939311557103522 27.5337854316054695 13.7775523580810564   F   F   F
 35.1419024997103620 27.5337854316054695 13.7775523580810564   F   F   F
 41.5898738437103503 27.5337854316054695 13.7775523580810564   F   F   F
 48.0378451877103529 27.5337854316054695 13.7775523580810564   F   F   F
 54.4858165317103484 27.5337854316054695 13.7775523580810564   F   F   F
 11.4133062204103499 33.6427274477054681 13.7775523580810564   F   F   F
 17.8612775644103507 33.6427274477054681 13.7775523580810564   F   F   F
 24.3092489084103569 33.6427274477054681 13.7775523580810564   F   F   F
 30.7572202524103524 33.6427274477054681 13.7775523580810564   F   F   F
 37.2051915964103586 33.6427274477054681 13.7775523580810564   F   F   F
 43.6531629404103541 33.6427274477054681 13.7775523580810564   F   F   F
 50.1011342844103567 33.6427274477054681 13.7775523580810564   F   F   F
 56.5491056284103522 33.6427274477054681 13.7775523580810564   F   F   F
 43.9112669943103526 15.3159013994054689 13.7775523580810564   F   F   F
 50.2563843231912912 33.5513427224184184 21.2593048521611792   T   T   T
 37.4632956503103500 15.3159013994054689 13.7775523580810564   F   F   F
 24.5673529623103519 15.3159013994054689 13.7775523580810564   F   F   F
 32.0779514886542785 48.6030578281923340 10.8100903574230109   F   F   F
 38.5259228326542740 48.6030578281923340 10.8100903574230109   F   F   F
 44.9738941766542766 48.6030578281923340 10.8100903574230109   F   F   F
 51.4218655206542792 48.6030578281923340 10.8100903574230109   F   F   F
 57.8698368646542747 48.6030578281923340 10.8100903574230109   F   F   F
 64.3178082086542702 48.6030578281923340 10.8100903574230109   F   F   F
  1.0968607369103509  3.0980173672054669 13.7775523580810564   F   F   F
  7.5448320809103500  3.0980173672054669 13.7775523580810564   F   F   F
 13.9928034249103508  3.0980173672054669 13.7775523580810564   F   F   F
 20.4407747689103516  3.0980173672054669 13.7775523580810564   F   F   F
 26.8887461129103507  3.0980173672054669 13.7775523580810564   F   F   F
 33.3367174569103497  3.0980173672054669 13.7775523580810564   F   F   F
 39.7846888009103523  3.0980173672054669 13.7775523580810564   F   F   F
 46.2326601449103478  3.0980173672054669 13.7775523580810564   F   F   F
  3.1601498336103511  9.2069593833054668 13.7775523580810564   F   F   F
  9.6081211776103501  9.2069593833054668 13.7775523580810564   F   F   F
 16.0560925216103527  9.2069593833054668 13.7775523580810564   F   F   F
 22.5040638656103518  9.2069593833054668 13.7775523580810564   F   F   F
 28.9520352096103508  9.2069593833054668 13.7775523580810564   F   F   F
 35.4000065536103605  9.2069593833054668 13.7775523580810564   F   F   F
 41.8479778976103631  9.2069593833054668 13.7775523580810564   F   F   F
 48.2959492416103586  9.2069593833054668 13.7775523580810564   F   F   F
  5.2234389303103512 15.3159013994054689 13.7775523580810564   F   F   F
 11.6714102743103503 15.3159013994054689 13.7775523580810564   F   F   F
 18.1193816183103529 15.3159013994054689 13.7775523580810564   F   F   F
 31.0153243063103510 15.3159013994054689 13.7775523580810564   F   F   F
 56.6975716859519849 33.4334757900701049 21.3013738177764260   T   T   T
 47.9148515327267788 36.6969484778481956 17.5557804298871964   F   F   F
 26.6351730667412845 39.5558151239210218 21.3082400509662939   T   T   T
 49.5129109254175788  3.0380640929821503 19.4240824324437433   T   T   T
  6.3993725261728676  9.2524793152337921 19.4414202037346016   T   T   T
 12.7956203879886115  9.2262207843016988 19.4079064704678643   T   T   T
 19.3830076912070197  9.2920091848272168 19.5016105277820380   T   T   T
 25.8698953432138623  9.2142017591695939 19.4664080479019184   T   T   T
 45.1655425977100080  9.2724800437737827 19.4671718163861804   T   T   T
 51.5454082545020285  9.1315429508567050 19.3950989500357629   T   T   T
  8.4222769556572281 15.4389690104430830 19.4588795009001920   T   T   T
 14.8408375812153821 15.3521605470347016 19.4250239036917094   T   T   T
 21.3128910355103294 15.3340490301168817 19.4039504222473340   T   T   T
 27.8955318473956169 15.4105261333592516 19.4813035879150114   T   T   T
 36.5811279698340286  3.1480271274250193 19.4606154959504032   T   T   T
 34.2621133258558430 15.3920882556453833 19.4723760047191448   T   T   T
 47.1483811114915952 15.3577773728441134 19.4528921686913030   T   T   T
 53.6004507750461627 15.4629623764489228 19.4697713092814340   T   T   T
 13.3050919742471265 39.8466235059214284 21.1915663151053906   T   T   T
 16.9924523186234282 21.4625301395070416 19.4675766747650769   T   T   T
 29.7418070580352953 21.4474189887343449 19.3488669326210072   T   T   T
 36.3441830008355282 21.3884651668818009 19.4462075803048933   T   T   T
 42.7713550923868624 21.5238429913033116 19.4591692787754553   T   T   T
 55.5982280688125243 21.4124870369863132 19.3770114763534238   T   T   T
 19.0175321933676607 27.5860506722285201 19.4114850226762670   T   T   T
 25.5215340544906830 27.5427113919071118 19.4494894235369919   T   T   T
 31.9454938070408652 27.4444076709574354 19.4128423257891569   T   T   T
 40.6089354120602550 15.3561571337513652 19.3794013359579473   T   T   T
 30.2011230263566972  3.0604486986137398 19.4720869702783332   T   T   T
 23.7933394829820202  3.0125806065204448 19.4412871902771194   T   T   T
 10.6586184366077177  3.1509849031100141 19.3999824515594241   T   T   T
 10.3877200117868966 30.5880064617481935 15.6367268423086472   F   F   F
 16.8356913557868957 30.5880064617481935 15.6367268423086472   F   F   F
 23.2836626997869018 30.5880064617481935 15.6367268423086472   F   F   F
 29.7316340437868973 30.5880064617481935 15.6367268423086472   F   F   F
 36.1796053877868999 30.5880064617481935 15.6367268423086472   F   F   F
 42.6275767317868954 30.5880064617481935 15.6367268423086472   F   F   F
 49.0755480757868980 30.5880064617481935 15.6367268423086472   F   F   F
 55.5235194197869006 30.5880064617481935 15.6367268423086472   F   F   F
 12.4510091084868968 36.6969484778481956 15.6367268423086472   F   F   F
 18.8989804524868958 36.6969484778481956 15.6367268423086472   F   F   F
 25.3469517964869020 36.6969484778481956 15.6367268423086472   F   F   F
 31.7949231404868975 36.6969484778481956 15.6367268423086472   F   F   F
 38.2428944844868965 36.6969484778481956 15.6367268423086472   F   F   F
 44.6908658284868920 36.6969484778481956 15.6367268423086472   F   F   F
 51.1388371724868946 36.6969484778481956 15.6367268423086472   F   F   F
 57.5868085164868972 36.6969484778481956 15.6367268423086472   F   F   F
 14.5142982051868952 42.8058904939481906 15.6367268423086472   F   F   F
 20.9622695491868960 42.8058904939481906 15.6367268423086472   F   F   F
 27.4102408931869022 42.8058904939481906 15.6367268423086472   F   F   F
 33.8582122371869048 42.8058904939481906 15.6367268423086472   F   F   F
 40.3061835811869003 42.8058904939481906 15.6367268423086472   F   F   F
 46.7541549251868958 42.8058904939481906 15.6367268423086472   F   F   F
 53.2021262691869055 42.8058904939481906 15.6367268423086472   F   F   F
 59.6500976131869010 42.8058904939481906 15.6367268423086472   F   F   F
  4.2632143608093864  3.2551301421306800 19.4571316817760547   T   T   T
 38.4317498824622277 27.5162566346174380 19.4688328963954156   T   T   T
 53.4602303230868969 24.4790644456481914 15.6367268423086472   F   F   F
 44.7654945930626695 27.5716919759016328 19.3720013416491099   T   T   T
 57.7454098460629126 27.5732062178855877 19.4798477099955889   T   T   T
 23.4580661103975530 11.5163193957423360 22.2928721782387385   T   T   T
 36.3603610570531401 11.2096177019965175 21.6898276373378849   T   T   T
 42.2107297933565349 11.3921164263521710 22.5181291846626728   T   T   T
 49.2261280247788662 11.5125356101301612 22.4637499801367859   T   T   T
 12.4971297884816579 17.9344784546328349 22.6289108349842323   T   T   T
 19.3651811641702380 17.8855129474589312 22.9120723086457581   T   T   T
 25.6087196509282862 17.6588271816146545 22.3630530027002195   T   T   T
 31.4830971334660354 16.9470922361659078 21.7436666894734536   T   T   T
 39.0776566034077888 18.0960291035199994 23.0485577976953095   T   T   T
 51.2724328038910429 17.6139720257298933 22.4149254827642324   T   T   T
 27.0140774605840761 23.4217853662847872 22.4709661104873710   T   T   T
 16.8138663469664458 11.8736558378317678 22.1242500112752154   T   T   T
 52.6859847213938579 23.7755483203196327 22.3620879531733294   T   T   T
 23.0435052781679204 30.1598394848150591 22.4831972732595311   T   T   T
 29.6878493293144672 30.0122431257509312 22.4687888326817955   T   T   T
 42.5438570722944007 29.9622988663385108 22.5158237950595073   T   T   T
 18.6852485514388604 36.4701048904737988 22.2861143782769169   T   T   T
 44.3689125372891340 36.0207205549229172 22.4412614298891029   T   T   T
 50.6878323594993745 36.5591945119642645 22.5058775369205399   T   T   T
 57.3845114701135728 36.0825460953535568 22.5494896554671342   T   T   T
 63.7085208479632925 36.4097600662318541 22.6177581246364134   T   T   T
 33.6239833228392158 42.1380003768248272 22.4414553495586091   T   T   T
 39.7017861425019234 41.4032133689474335 21.6938078719089624   T   T   T
 29.0858568664688981 48.5108129580589065 22.2617139209676189   T   T   T
 16.1642051887274434 29.7738036451496875 22.4619427676515464   T   T   T
 52.8866484666234342  3.9558995891034101 21.7371993001143089   T   T   T
 40.8472434351852414  5.0921606127659871 21.7007217059893627   T   T   T
 21.0419174396981461  5.4371564832570209 22.3277739445998265   T   T   T
 14.6002337068061987 33.6709053656172586 19.3966878316668669   T   T   T
 21.0414780030149124 33.6829299025416020 19.4136321972128556   T   T   T
 27.5823682458025203 33.6631267251477055 19.4792523556438688   T   T   T
 33.8982353999759027 33.6829102149383459 19.3981283018427710   T   T   T
 40.4477822703758036 33.6658555081556585 19.4448623058622765   T   T   T
 46.8952638210212811 33.6535647861870899 19.4309801009085277   T   T   T
 53.4098654653781679 33.6331075271862403 19.4791506122642240   T   T   T
 59.7534638810561347 33.6880157287550617 19.3978651632489196   T   T   T
 23.1278244143984466 39.7545037026683801 19.5057551240352431   T   T   T
 29.6724348235562907 39.7296645294379829 19.4754059970503839   T   T   T
 36.1346741514405636 39.8743203501291106 19.4848565442452646   T   T   T
 42.5048528664441321 39.8018339264261556 19.4777351671997287   T   T   T
 48.9108018182565303 39.8088908833867094 19.4439127347727769   T   T   T
 55.3423268965107624 39.7988819013568360 19.4087723780191723   T   T   T
 61.7243772548291858 39.8123038311645914 19.3668998761198452   T   T   T
 18.8636544986519077 45.8357613521218639 19.4530412818417240   T   T   T
 25.2005307142407133 45.9110852402275853 19.4181699725161856   T   T   T
 31.6726565507434508 45.9202470409149157 19.4535264398444880   T   T   T
 38.1417003549067388 45.9274163193108365 19.4690399462402155   T   T   T
 44.6736459400323511 45.9030361030629948 19.4914184233767642   T   T   T
 51.1267411875911506 45.8382330064931409 19.4766105413853481   T   T   T
 57.4997923592320532 45.9916675249721081 19.4814918637382526   T   T   T
 63.8279127926061562 45.9200368550395694 19.4038179144675844   T   T   T
  8.4321000256793628  5.6386035516739303 22.6882749869635951   T   T   T
 14.9481905019532473  4.7571067967014526 21.5755685828241326   T   T   T
 51.2659814225186068 27.5998890522942091 19.4442601263790209   T   T   T
 47.0122589790868943 24.4790644456481914 15.6367268423086472   F   F   F
 10.4530458920807217 21.4660923889109547 19.3969833629803290   T   T   T
 34.1163162910868962 24.4790644456481914 15.6367268423086472   F   F   F
 27.7873350632696940 15.2850796243687928 11.8524376351144216   F   F   F
 34.2353064072696824 15.2850796243687928 11.8524376351144216   F   F   F
 40.6832777512696921 15.2850796243687928 11.8524376351144216   F   F   F
 47.1312490952696876 15.2850796243687928 11.8524376351144216   F   F   F
 53.5792204392696902 15.2850796243687928 11.8524376351144216   F   F   F
 10.5067101279696935 21.3940216404687931 11.8524376351144216   F   F   F
 16.9546814719696926 21.3940216404687931 11.8524376351144216   F   F   F
 23.4026528159696952 21.3940216404687931 11.8524376351144216   F   F   F
 29.8506241599696942 21.3940216404687931 11.8524376351144216   F   F   F
 36.2985955039696933 21.3940216404687931 11.8524376351144216   F   F   F
 42.7465668479696959 21.3940216404687931 11.8524376351144216   F   F   F
 21.3393637192696950 15.2850796243687928 11.8524376351144216   F   F   F
 49.1945381919696914 21.3940216404687931 11.8524376351144216   F   F   F
 12.5699992246696937 27.5029636565687952 11.8524376351144216   F   F   F
 19.0179705686696927 27.5029636565687952 11.8524376351144216   F   F   F
 25.4659419126696953 27.5029636565687952 11.8524376351144216   F   F   F
 31.9139132566696944 27.5029636565687952 11.8524376351144216   F   F   F
 38.3618846006696828 27.5029636565687952 11.8524376351144216   F   F   F
 44.8098559446696854 27.5029636565687952 11.8524376351144216   F   F   F
 51.2578272886696809 27.5029636565687952 11.8524376351144216   F   F   F
 57.7057986326696906 27.5029636565687952 11.8524376351144216   F   F   F
 14.6332883213696938 33.6119056726687973 11.8524376351144216   F   F   F
 21.0812596653696929 33.6119056726687973 11.8524376351144216   F   F   F
 27.5292310093696955 33.6119056726687973 11.8524376351144216   F   F   F
 55.6425095359696940 21.3940216404687931 11.8524376351144216   F   F   F
 14.8913923752696942 15.2850796243687928 11.8524376351144216   F   F   F
  8.4434210312696933 15.2850796243687928 11.8524376351144216   F   F   F
 51.5159313425696936  9.1761376082687942 11.8524376351144216   F   F   F
 32.9826530631221075 39.6273241889804524 21.2693222178342047   T   T   T
 52.0849174773357575 39.8726225696227132 21.2572014672624547   T   T   T
 58.5286629436216259 39.7359924374109852 21.3509229860602012   T   T   T
 15.6587667945575966 45.6662430995859197 21.2192275926855594   T   T   T
 22.2797244979344846 45.5720828435359451 21.3185729164351692   T   T   T
 28.4095647769292441 46.0570252237822402 21.2427876457867271   T   T   T
 34.8962383729042784 45.9263454578685000 21.3184438096173743   T   T   T
 41.4717953084746398 45.5371777896067158 21.3168053478603206   T   T   T
 48.1456225441841141 45.6557053111730227 21.5102696369498396   T   T   T
 40.5642876350868917 24.4790644456481914 15.6367268423086472   F   F   F
  4.3168428378696939  3.0671955921687934 11.8524376351144216   F   F   F
 10.7648141818696939  3.0671955921687934 11.8524376351144216   F   F   F
 17.2127855258696947  3.0671955921687934 11.8524376351144216   F   F   F
 23.6607568698696937  3.0671955921687934 11.8524376351144216   F   F   F
 30.1087282138696928  3.0671955921687934 11.8524376351144216   F   F   F
 36.5566995578696847  3.0671955921687934 11.8524376351144216   F   F   F
 43.0046709018696802  3.0671955921687934 11.8524376351144216   F   F   F
 49.4526422458696899  3.0671955921687934 11.8524376351144216   F   F   F
  6.3801319345696941  9.1761376082687942 11.8524376351144216   F   F   F
 12.8281032785696940  9.1761376082687942 11.8524376351144216   F   F   F
 19.2760746225696948  9.1761376082687942 11.8524376351144216   F   F   F
 25.7240459665696939  9.1761376082687942 11.8524376351144216   F   F   F
 32.1720173105696929  9.1761376082687942 11.8524376351144216   F   F   F
 38.6199886545696955  9.1761376082687942 11.8524376351144216   F   F   F
 45.0679599985696910  9.1761376082687942 11.8524376351144216   F   F   F
 33.9772023533696839 33.6119056726687973 11.8524376351144216   F   F   F
 40.4251736973696936 33.6119056726687973 11.8524376351144216   F   F   F
 54.4852920780605672 45.7180844179792416 21.3333627046300762   T   T   T
 53.3211163853696917 33.6119056726687973 11.8524376351144216   F   F   F
 27.9264490009868993  6.1522383973481931 15.6367268423086472   F   F   F
 34.3744203449868948  6.1522383973481931 15.6367268423086472   F   F   F
 40.8223916889868974  6.1522383973481931 15.6367268423086472   F   F   F
 47.2703630329869000  6.1522383973481931 15.6367268423086472   F   F   F
  4.1978527216868970 12.2611804134481943 15.6367268423086472   F   F   F
 10.6458240656868970 12.2611804134481943 15.6367268423086472   F   F   F
 17.0937954096868978 12.2611804134481943 15.6367268423086472   F   F   F
 23.5417667536868969 12.2611804134481943 15.6367268423086472   F   F   F
 29.9897380976868995 12.2611804134481943 15.6367268423086472   F   F   F
 36.4377094416868914 12.2611804134481943 15.6367268423086472   F   F   F
 42.8856807856868869 12.2611804134481943 15.6367268423086472   F   F   F
 21.4784776569868967  6.1522383973481931 15.6367268423086472   F   F   F
 49.3336521296868966 12.2611804134481943 15.6367268423086472   F   F   F
 12.7091131623868971 18.3701224295481964 15.6367268423086472   F   F   F
 19.1570845063868980 18.3701224295481964 15.6367268423086472   F   F   F
 25.6050558503868970 18.3701224295481964 15.6367268423086472   F   F   F
 32.0530271943868996 18.3701224295481964 15.6367268423086472   F   F   F
 38.5009985383868951 18.3701224295481964 15.6367268423086472   F   F   F
 44.9489698823868977 18.3701224295481964 15.6367268423086472   F   F   F
  8.3244309150868965 24.4790644456481914 15.6367268423086472   F   F   F
 14.7724022590868973 24.4790644456481914 15.6367268423086472   F   F   F
 21.2203736030869017 24.4790644456481914 15.6367268423086472   F   F   F
 27.6683449470868972 24.4790644456481914 15.6367268423086472   F   F   F
 46.8731450413696962 33.6119056726687973 11.8524376351144216   F   F   F
  6.2611418183868972 18.3701224295481964 15.6367268423086472   F   F   F
 15.0305063129868977  6.1522383973481931 15.6367268423086472   F   F   F
 51.3969412263869003 18.3701224295481964 15.6367268423086472   F   F   F
  2.1345636249868964  6.1522383973481931 15.6367268423086472   F   F   F
 59.7690877293696943 33.6119056726687973 11.8524376351144216   F   F   F
  8.5825349689868968  6.1522383973481931 15.6367268423086472   F   F   F
 16.6965774180696940 39.7208476887687922 11.8524376351144216   F   F   F
 23.1445487620696930 39.7208476887687922 11.8524376351144216   F   F   F
 36.0404914500696947 39.7208476887687922 11.8524376351144216   F   F   F
 42.4884627940696902 39.7208476887687922 11.8524376351144216   F   F   F
 48.9364341380696928 39.7208476887687922 11.8524376351144216   F   F   F
 55.3844054820696883 39.7208476887687922 11.8524376351144216   F   F   F
 61.8323768260696909 39.7208476887687922 11.8524376351144216   F   F   F
 18.7598665147696941 45.8297897048687943 11.8524376351144216   F   F   F
 25.2078378587696932 45.8297897048687943 11.8524376351144216   F   F   F
 31.6558092027696958 45.8297897048687943 11.8524376351144216   F   F   F
 38.1037805467696842 45.8297897048687943 11.8524376351144216   F   F   F
 29.5925201060696921 39.7208476887687922 11.8524376351144216   F   F   F
 50.9997232347696965 45.8297897048687943 11.8524376351144216   F   F   F
 44.5517518907696939 45.8297897048687943 11.8524376351144216   F   F   F
 32.3111312482868911  0.0432963812481926 15.6367268423086472   F   F   F
 19.4151885602868965  0.0432963812481926 15.6367268423086472   F   F   F
 12.9672172162868975  0.0432963812481926 15.6367268423086472   F   F   F
 25.8631599042868991  0.0432963812481926 15.6367268423086472   F   F   F
  0.0712745282868965  0.0432963812481926 15.6367268423086472   F   F   F
 63.8956659227696946 45.8297897048687943 11.8524376351144216   F   F   F
 45.2070739362868963  0.0432963812481926 15.6367268423086472   F   F   F
 57.4476945787696920 45.8297897048687943 11.8524376351144216   F   F   F
  6.5192458722868967  0.0432963812481926 15.6367268423086472   F   F   F
 38.7591025922868937  0.0432963812481926 15.6367268423086472   F   F   F
 62.7515344037578657 37.2981809727321973 23.8887617665828564   T   T   T
 32.3522844711851363 42.7932437445569249 23.5710192832257874   T   T   T
 17.6349278117542738  5.8404637154923318  9.2264274660354193   F   F   F
 39.0932762878066384 42.9447255471505542 22.7753755570758756   T   T   T
 27.8342278969688728 49.4027239082796541 23.2466292128877292   T   T   T
 41.0813905112212083 48.6408860148002802 23.5276298577624381   T   T   T
 66.7833960294672124 48.6778319684922778 23.4181471351048778   T   T   T
  4.7389851237542686  5.8404637154923318  9.2264274660354193   F   F   F
 11.1869564677542748  5.8404637154923318  9.2264274660354193   F   F   F
 49.8747845317542726  5.8404637154923318  9.2264274660354193   F   F   F
 30.5308704997542719  5.8404637154923318  9.2264274660354193   F   F   F
 36.9788418437542745  5.8404637154923318  9.2264274660354193   F   F   F
 43.4268131877542700  5.8404637154923318  9.2264274660354193   F   F   F
  6.8022742204542697 11.9494057315923321  9.2264274660354193   F   F   F
 13.2502455644542749 11.9494057315923321  9.2264274660354193   F   F   F
 19.6982169084542740 11.9494057315923321  9.2264274660354193   F   F   F
 26.1461882524542730 11.9494057315923321  9.2264274660354193   F   F   F
 56.1721156898215526 36.8132741881810333 23.7022062084409768   T   T   T
 32.5941595964542756 11.9494057315923321  9.2264274660354193   F   F   F
 39.0421309404542853 11.9494057315923321  9.2264274660354193   F   F   F
 24.0828991557542729  5.8404637154923318  9.2264274660354193   F   F   F
 49.4030013597579511 37.5748949848676546 23.4267375421445685   T   T   T
 24.3430898596731069 18.3813622882532002 23.4646925394314358   T   T   T
 17.6717830910969447 37.6220550247987049 23.3169332260700557   T   T   T
 20.2459627546996401  6.4833365949873496 23.6466690842158229   T   T   T
 45.4901022844542808 11.9494057315923321  9.2264274660354193   F   F   F
 39.7838472028055037  6.1320049574302695 22.8197977606347955   T   T   T
 52.6708930834232660  5.6387948257951948 22.6357091593750184   T   T   T
 15.5045529943178000 12.8309545830770038 22.9908742631811549   T   T   T
 22.2629222819731005 12.3682426895020772 23.3946917741661480   T   T   T
 35.3130682511499998 12.1713783234169934 22.9388877250400398   T   T   T
 41.3647692709737740 12.5984080723384420 23.6764751464536651   T   T   T
 47.9549381957292695 12.2402043348346350 23.5482380736671857   T   T   T
 43.0915790099665443 36.7772200551454915 23.4904803610916346   T   T   T
 11.3419871869601980 18.9871902760146938 23.5509062536076712   T   T   T
 30.6893122312207538 18.3026020253708559 22.9377289167882310   T   T   T
 37.3194371626135890 18.3040840376339844 23.3650685326465819   T   T   T
 49.9739459463143874 18.4220790939211767 23.3948571419881510   T   T   T
 26.3679104783431519 24.8268723575163861 23.5665057899361834   T   T   T
 51.9064926510029423 24.8299989997764143 23.6772190981500223   T   T   T
 15.3609630216908624 30.7826193745251011 23.7989785150914024   T   T   T
 21.9595686159722412 31.1553035999306154 23.5501629268711135   T   T   T
 28.5157561921954503 30.8303687418480585 23.6039003876573901   T   T   T
 41.2400214045315963 30.6298492125744062 23.6023718855767299   T   T   T
 17.7715302992591546 18.4202064431458865 23.5588088242051725   T   T   T
 51.9380736284542763 11.9494057315923321  9.2264274660354193   F   F   F
 27.9513732952542746 36.3851737959923369  9.2264274660354193   F   F   F
 15.3135346611542733 18.0583477476923271  9.2264274660354193   F   F   F
 34.3993446392542737 36.3851737959923369  9.2264274660354193   F   F   F
 40.8473159832542763 36.3851737959923369  9.2264274660354193   F   F   F
 47.2952873272542860 36.3851737959923369  9.2264274660354193   F   F   F
 53.7432586712542815 36.3851737959923369  9.2264274660354193   F   F   F
 60.1912300152542770 36.3851737959923369  9.2264274660354193   F   F   F
 17.1187197039542696 42.4941158120923390  9.2264274660354193   F   F   F
 23.5666910479542757 42.4941158120923390  9.2264274660354193   F   F   F
 30.0146623919542748 42.4941158120923390  9.2264274660354193   F   F   F
 36.4626337359542845 42.4941158120923390  9.2264274660354193   F   F   F
 21.5034019512542756 36.3851737959923369  9.2264274660354193   F   F   F
 42.9106050799542729 42.4941158120923390  9.2264274660354193   F   F   F
 55.8065477679542710 42.4941158120923390  9.2264274660354193   F   F   F
 62.2545191119542736 42.4941158120923390  9.2264274660354193   F   F   F
 19.1820088006542697 48.6030578281923340  9.2264274660354193   F   F   F
 25.6299801446542759 48.6030578281923340  9.2264274660354193   F   F   F
 32.0779514886542785 48.6030578281923340  9.2264274660354193   F   F   F
 38.5259228326542740 48.6030578281923340  9.2264274660354193   F   F   F
 44.9738941766542766 48.6030578281923340  9.2264274660354193   F   F   F
 51.4218655206542792 48.6030578281923340  9.2264274660354193   F   F   F
 13.9244100927960019  5.5534505754241037 22.9567865543490903   T   T   T
 49.3585764239542755 42.4941158120923390  9.2264274660354193   F   F   F
  8.8655633171542672 18.0583477476923271  9.2264274660354193   F   F   F
 15.0554306072542712 36.3851737959923369  9.2264274660354193   F   F   F
 51.6799695745542707 30.2762317798923348  9.2264274660354193   F   F   F
 21.7615060051542706 18.0583477476923271  9.2264274660354193   F   F   F
 28.2094773491542696 18.0583477476923271  9.2264274660354193   F   F   F
 34.6574486931542722 18.0583477476923271  9.2264274660354193   F   F   F
 41.1054200371542748 18.0583477476923271  9.2264274660354193   F   F   F
 47.5533913811542703 18.0583477476923271  9.2264274660354193   F   F   F
 54.0013627251542729 18.0583477476923271  9.2264274660354193   F   F   F
 10.9288524138542691 24.1672897637923327  9.2264274660354193   F   F   F
 17.3768237578542752 24.1672897637923327  9.2264274660354193   F   F   F
 23.8247951018542743 24.1672897637923327  9.2264274660354193   F   F   F
 58.1279409185542733 30.2762317798923348  9.2264274660354193   F   F   F
 30.2727664458542733 24.1672897637923327  9.2264274660354193   F   F   F
 43.1687091338542643 24.1672897637923327  9.2264274660354193   F   F   F
 49.6166804778542598 24.1672897637923327  9.2264274660354193   F   F   F
 56.0646518218542695 24.1672897637923327  9.2264274660354193   F   F   F
 12.9921415105542710 30.2762317798923348  9.2264274660354193   F   F   F
 19.4401128545542754 30.2762317798923348  9.2264274660354193   F   F   F
 25.8880841985542745 30.2762317798923348  9.2264274660354193   F   F   F
 32.3360555425542842 30.2762317798923348  9.2264274660354193   F   F   F
 38.7840268865542726 30.2762317798923348  9.2264274660354193   F   F   F
 45.2319982305542752 30.2762317798923348  9.2264274660354193   F   F   F
 36.7207377898542688 24.1672897637923327  9.2264274660354193   F   F   F
  7.4237388880386010  6.7493801355884093 23.6959017184940599   T   T   T
 64.3178082086542702 48.6030578281923340  9.2264274660354193   F   F   F
 57.8698368646542747 48.6030578281923340  9.2264274660354193   F   F   F
 52.4277592056257546 19.1321370546699825 13.7457805260363646   F   F   F
 10.8348231366089518  0.8044301091491445 11.8484909360338051   F   F   F
 17.2827944806089491  0.8044301091491445 11.8484909360338051   F   F   F
 23.7307658246089517  0.8044301091491445 11.8484909360338051   F   F   F
 30.1787371686089472  0.8044301091491445 11.8484909360338051   F   F   F
 36.6267085126089498  0.8044301091491445 11.8484909360338051   F   F   F
 43.0746798566089524  0.8044301091491445 11.8484909360338051   F   F   F
 49.5226512006089479  0.8044301091491445 11.8484909360338051   F   F   F
  6.4501408893089502  6.9133721252491451 11.8484909360338051   F   F   F
 12.8981122333089520  6.9133721252491451 11.8484909360338051   F   F   F
 19.3460835773089492  6.9133721252491451 11.8484909360338051   F   F   F
 25.7940549213089518  6.9133721252491451 11.8484909360338051   F   F   F
 32.2420262653089580  6.9133721252491451 11.8484909360338051   F   F   F
 38.6899976093089464  6.9133721252491451 11.8484909360338051   F   F   F
 45.1379689533089490  6.9133721252491451 11.8484909360338051   F   F   F
 51.5859402973089445  6.9133721252491451 11.8484909360338051   F   F   F
  8.5134299860089513 13.0223141413491454 11.8484909360338051   F   F   F
 14.9614013300089521 13.0223141413491454 11.8484909360338051   F   F   F
 21.4093726740089494 13.0223141413491454 11.8484909360338051   F   F   F
 27.8573440180089520 13.0223141413491454 11.8484909360338051   F   F   F
 34.3053153620089475 13.0223141413491454 11.8484909360338051   F   F   F
 40.7532867060089501 13.0223141413491454 11.8484909360338051   F   F   F
 47.2012580500089527 13.0223141413491454 11.8484909360338051   F   F   F
 53.6492293940089482 13.0223141413491454 11.8484909360338051   F   F   F
 10.5767190827089514 19.1312561574491475 11.8484909360338051   F   F   F
 17.0246904267089505 19.1312561574491475 11.8484909360338051   F   F   F
 23.4726617707089495 19.1312561574491475 11.8484909360338051   F   F   F
 29.9206331147089521 19.1312561574491475 11.8484909360338051   F   F   F
  4.3868517926089501  0.8044301091491445 11.8484909360338051   F   F   F
 36.3686044587089583 19.1312561574491475 11.8484909360338051   F   F   F
 60.6584003711851523 43.5345128295207076  9.7145333790886230   F   F   F
 47.7624576831851542 43.5345128295207076  9.7145333790886230   F   F   F
 15.7807050170851557 25.2076867812207048  9.7145333790886230   F   F   F
 22.2286763610851530 25.2076867812207048  9.7145333790886230   F   F   F
 28.6766477050851591 25.2076867812207048  9.7145333790886230   F   F   F
 35.1246190490851546 25.2076867812207048  9.7145333790886230   F   F   F
 41.5725903930851572 25.2076867812207048  9.7145333790886230   F   F   F
 48.0205617370851527 25.2076867812207048  9.7145333790886230   F   F   F
 54.4685330810851553 25.2076867812207048  9.7145333790886230   F   F   F
 11.3960227697851550 31.3166287973207034  9.7145333790886230   F   F   F
 17.8439941137851541 31.3166287973207034  9.7145333790886230   F   F   F
 24.2919654577851531 31.3166287973207034  9.7145333790886230   F   F   F
 30.7399368017851593 31.3166287973207034  9.7145333790886230   F   F   F
 37.1879081457851512 31.3166287973207034  9.7145333790886230   F   F   F
 43.6358794897851539 31.3166287973207034  9.7145333790886230   F   F   F
 54.2104290271851497 43.5345128295207076  9.7145333790886230   F   F   F
 50.0838508337851493 31.3166287973207034  9.7145333790886230   F   F   F
 13.4593118664851552 37.4255708134207055  9.7145333790886230   F   F   F
 19.9072832104851543 37.4255708134207055  9.7145333790886230   F   F   F
 26.3552545544851533 37.4255708134207055  9.7145333790886230   F   F   F
 32.8032258984851524 37.4255708134207055  9.7145333790886230   F   F   F
 39.2511972424851550 37.4255708134207055  9.7145333790886230   F   F   F
 45.6991685864851576 37.4255708134207055  9.7145333790886230   F   F   F
 52.1471399304851531 37.4255708134207055  9.7145333790886230   F   F   F
 58.5951112744851557 37.4255708134207055  9.7145333790886230   F   F   F
 15.5226009631851554 43.5345128295207076  9.7145333790886230   F   F   F
 21.9705723071851544 43.5345128295207076  9.7145333790886230   F   F   F
 28.4185436511851535 43.5345128295207076  9.7145333790886230   F   F   F
 34.8665149951851561 43.5345128295207076  9.7145333790886230   F   F   F
 41.3144863391851516 43.5345128295207076  9.7145333790886230   F   F   F
 56.5318221777851520 31.3166287973207034  9.7145333790886230   F   F   F
 42.8165758027089467 19.1312561574491475 11.8484909360338051   F   F   F
 49.2645471467089493 19.1312561574491475 11.8484909360338051   F   F   F
 55.7125184907089448 19.1312561574491475 11.8484909360338051   F   F   F
  8.5913229429598772  3.8716663013465920 15.6462197047971063   F   F   F
 15.0392942869598762  3.8716663013465920 15.6462197047971063   F   F   F
 21.4872656309598753  3.8716663013465920 15.6462197047971063   F   F   F
 27.9352369749598743  3.8716663013465920 15.6462197047971063   F   F   F
 34.3832083189598734  3.8716663013465920 15.6462197047971063   F   F   F
 40.8311796629598760  3.8716663013465920 15.6462197047971063   F   F   F
 47.2791510069598786  3.8716663013465920 15.6462197047971063   F   F   F
  4.2066406956598774  9.9806083174465918 15.6462197047971063   F   F   F
 10.6546120396598774  9.9806083174465918 15.6462197047971063   F   F   F
 17.1025833836598764  9.9806083174465918 15.6462197047971063   F   F   F
 23.5505547276598755  9.9806083174465918 15.6462197047971063   F   F   F
 29.9985260716598745  9.9806083174465918 15.6462197047971063   F   F   F
 36.4464974156598842  9.9806083174465918 15.6462197047971063   F   F   F
  2.1433515989598768  3.8716663013465920 15.6462197047971063   F   F   F
 42.8944687596598797  9.9806083174465918 15.6462197047971063   F   F   F
  6.2699297923598758 16.0895503335465868 15.6462197047971063   F   F   F
 12.7179011363598757 16.0895503335465868 15.6462197047971063   F   F   F
 19.1658724803598766 16.0895503335465868 15.6462197047971063   F   F   F
 25.6138438243598756 16.0895503335465868 15.6462197047971063   F   F   F
 32.0618151683598711 16.0895503335465868 15.6462197047971063   F   F   F
 38.5097865123598737 16.0895503335465868 15.6462197047971063   F   F   F
 44.9577578563598763 16.0895503335465868 15.6462197047971063   F   F   F
 51.4057292003598789 16.0895503335465868 15.6462197047971063   F   F   F
  8.3332188890598768 22.1984923496465925 15.6462197047971063   F   F   F
 14.7811902330598759 22.1984923496465925 15.6462197047971063   F   F   F
 21.2291615770598767 22.1984923496465925 15.6462197047971063   F   F   F
 27.6771329210598758 22.1984923496465925 15.6462197047971063   F   F   F
 34.1251042650598748 22.1984923496465925 15.6462197047971063   F   F   F
 49.3424401036598894  9.9806083174465918 15.6462197047971063   F   F   F
 63.9656748775089454 43.5670242218491452 11.8484909360338051   F   F   F
 57.5177035335089499 43.5670242218491452 11.8484909360338051   F   F   F
 51.0697321895089473 43.5670242218491452 11.8484909360338051   F   F   F
 12.6400081794089498 25.2401981735491425 11.8484909360338051   F   F   F
 19.0879795234089507 25.2401981735491425 11.8484909360338051   F   F   F
 25.5359508674089497 25.2401981735491425 11.8484909360338051   F   F   F
 31.9839222114089523 25.2401981735491425 11.8484909360338051   F   F   F
 38.4318935554089478 25.2401981735491425 11.8484909360338051   F   F   F
 44.8798648994089504 25.2401981735491425 11.8484909360338051   F   F   F
 51.3278362434089601 25.2401981735491425 11.8484909360338051   F   F   F
 57.7758075874089556 25.2401981735491425 11.8484909360338051   F   F   F
 14.7032972761089500 31.3491401896491446 11.8484909360338051   F   F   F
 21.1512686201089508 31.3491401896491446 11.8484909360338051   F   F   F
 27.5992399641089499 31.3491401896491446 11.8484909360338051   F   F   F
 34.0472113081089560 31.3491401896491446 11.8484909360338051   F   F   F
 40.4951826521089586 31.3491401896491446 11.8484909360338051   F   F   F
 46.9431539961089470 31.3491401896491446 11.8484909360338051   F   F   F
 53.3911253401089496 31.3491401896491446 11.8484909360338051   F   F   F
 59.8390966841089451 31.3491401896491446 11.8484909360338051   F   F   F
 16.7665863728089555 37.4580822057491361 11.8484909360338051   F   F   F
 23.2145577168089545 37.4580822057491361 11.8484909360338051   F   F   F
 29.6625290608089536 37.4580822057491361 11.8484909360338051   F   F   F
 36.1105004048089526 37.4580822057491361 11.8484909360338051   F   F   F
 42.5584717488089552 37.4580822057491361 11.8484909360338051   F   F   F
 49.0064430928089507 37.4580822057491361 11.8484909360338051   F   F   F
 55.4544144368089533 37.4580822057491361 11.8484909360338051   F   F   F
 61.9023857808089488 37.4580822057491361 11.8484909360338051   F   F   F
 18.8298754695089521 43.5670242218491452 11.8484909360338051   F   F   F
 25.2778468135089511 43.5670242218491452 11.8484909360338051   F   F   F
 31.7258181575089502 43.5670242218491452 11.8484909360338051   F   F   F
 38.1737895015089563 43.5670242218491452 11.8484909360338051   F   F   F
 44.6217608455089589 43.5670242218491452 11.8484909360338051   F   F   F
  9.3327336730851549 25.2076867812207048  9.7145333790886230   F   F   F
 52.4052439843851516 19.0987447651206992  9.7145333790886230   F   F   F
 45.9572726403851490 19.0987447651206992  9.7145333790886230   F   F   F
 39.5093012963851535 19.0987447651206992  9.7145333790886230   F   F   F
 11.7024082256071313  3.7348418050552223 21.2748794432859896   T   T   T
 19.1068914123518105  4.4533374188566857 21.2861754005410688   T   T   T
 24.9991370505282831  3.7803617471180497 21.2480868959635210   T   T   T
 31.2796030488224375  3.7336295124544074 21.3369426696538014   T   T   T
 37.6004571782700339  3.6598093463791419 21.4109286194537560   T   T   T
 44.3274647797450712  3.9679221621861789 21.1626864755627011   T   T   T
 50.5404091069651997  3.7708073369506807 21.3341761149614655   T   T   T
  7.5436562669538496 10.0030447258117601 21.3143303010648140   T   T   T
 13.9380654431004753 10.0138765615072014 21.2396415509339391   T   T   T
 20.6544866102669822  9.9829184801924651 21.3201279726813659   T   T   T
 27.5191688376387056  9.9922109588605750 20.8422091164660550   T   T   T
 32.9345585073254341  9.7852508017363959 21.4574385261495628   T   T   T
 40.2633252823535202 10.1907884484572868 21.6217085630657877   T   T   T
  5.4752971582541941  3.9713328031032562 21.1389152489864678   T   T   T
 46.3590179601712578 10.1621940674897502 21.2100673586091482   T   T   T
  9.6448919125083794 16.2334587363925920 21.1705004248071944   T   T   T
 15.9317882560119877 15.9992088563007542 21.2530415421107151   T   T   T
 22.5750871609803525 16.0456575704612021 21.2335190213941409   T   T   T
 29.1730735401103765 16.1882687520606900 21.1819704385100636   T   T   T
 35.5585932547006465 15.9449227119222829 21.1840896933001872   T   T   T
 41.7952972595789234 16.0879078257209542 21.2230950779922445   T   T   T
 48.2310162147796788 16.1230603745071690 21.3571850595652322   T   T   T
 54.9280461638215414 16.1828380244722787 21.0702086207104351   T   T   T
 11.5457527129752027 22.2586486865729505 21.2520240606205881   T   T   T
 18.1609263500696230 22.2526051575449344 21.3127225355662837   T   T   T
 25.0585524595374984 22.6339258829674819 21.6285343709267899   T   T   T
 30.9475081302146116 22.0653800161381568 21.2074622363383298   T   T   T
 37.5325546544814301 22.1176667660501352 21.2899278390982047   T   T   T
 52.7103950145320113 10.0017809569866341 21.1682458439564662   T   T   T
 43.9302841691980177 22.3682159279658208 21.2484250582045036   T   T   T
 60.7094398658376377 43.5418635300714740 17.5254423054545576   F   F   F
 47.8134971778376325 43.5418635300714740 17.5254423054545576   F   F   F
 15.8317445117376394 25.2150374817714820 17.5254423054545576   F   F   F
 22.2797158557376349 25.2150374817714820 17.5254423054545576   F   F   F
 28.7276871997376375 25.2150374817714820 17.5254423054545576   F   F   F
 35.1756585437376401 25.2150374817714820 17.5254423054545576   F   F   F
 41.6236298877376356 25.2150374817714820 17.5254423054545576   F   F   F
 48.0716012317376382 25.2150374817714820 17.5254423054545576   F   F   F
 54.5195725757376408 25.2150374817714820 17.5254423054545576   F   F   F
 11.4470622644376405 31.3239794978714841 17.5254423054545576   F   F   F
 17.8950336084376396 31.3239794978714841 17.5254423054545576   F   F   F
 24.3430049524376351 31.3239794978714841 17.5254423054545576   F   F   F
 30.7909762964376377 31.3239794978714841 17.5254423054545576   F   F   F
 37.2389476404376367 31.3239794978714841 17.5254423054545576   F   F   F
 43.6869189844376393 31.3239794978714841 17.5254423054545576   F   F   F
 54.2614685218376422 43.5418635300714740 17.5254423054545576   F   F   F
 50.1348903284376419 31.3239794978714841 17.5254423054545576   F   F   F
 13.5103513611376407 37.4329215139714861 17.5254423054545576   F   F   F
 19.9583227051376397 37.4329215139714861 17.5254423054545576   F   F   F
 26.4062940491376352 37.4329215139714861 17.5254423054545576   F   F   F
 32.8542653931376378 37.4329215139714861 17.5254423054545576   F   F   F
 39.3022367371376404 37.4329215139714861 17.5254423054545576   F   F   F
 45.7502080811376359 37.4329215139714861 17.5254423054545576   F   F   F
 52.1981794251376385 37.4329215139714861 17.5254423054545576   F   F   F
 58.6461507691376411 37.4329215139714861 17.5254423054545576   F   F   F
 15.5736404578376391 43.5418635300714740 17.5254423054545576   F   F   F
 22.0216118018376399 43.5418635300714740 17.5254423054545576   F   F   F
 28.4695831458376389 43.5418635300714740 17.5254423054545576   F   F   F
 34.9175544898376415 43.5418635300714740 17.5254423054545576   F   F   F
 41.3655258338376370 43.5418635300714740 17.5254423054545576   F   F   F
 56.5828616724376445 31.3239794978714841 17.5254423054545576   F   F   F
 40.5730756090598632 22.1984923496465925 15.6462197047971063   F   F   F
 50.6332211951912043 22.6399459125561293 21.5328751412303063   T   T   T
 14.2161608358450504 28.6917678650460637 21.5497736607238082   T   T   T
  7.5275486302851542  0.7719187168207011  9.7145333790886230   F   F   F
 13.9755199742851524  0.7719187168207011  9.7145333790886230   F   F   F
 20.4234913182851550  0.7719187168207011  9.7145333790886230   F   F   F
 26.8714626622851540  0.7719187168207011  9.7145333790886230   F   F   F
 33.3194340062851566  0.7719187168207011  9.7145333790886230   F   F   F
 39.7674053502851521  0.7719187168207011  9.7145333790886230   F   F   F
 46.2153766942851547  0.7719187168207011  9.7145333790886230   F   F   F
  3.1428663829851540  6.8808607329207012  9.7145333790886230   F   F   F
  9.5908377269851552  6.8808607329207012  9.7145333790886230   F   F   F
 16.0388090709851525  6.8808607329207012  9.7145333790886230   F   F   F
 22.4867804149851587  6.8808607329207012  9.7145333790886230   F   F   F
 28.9347517589851542  6.8808607329207012  9.7145333790886230   F   F   F
 35.3827231029851532  6.8808607329207012  9.7145333790886230   F   F   F
  1.0795772862851540  0.7719187168207011  9.7145333790886230   F   F   F
 41.8306944469851487  6.8808607329207012  9.7145333790886230   F   F   F
  5.2061554796851537 12.9898027490207006  9.7145333790886230   F   F   F
 11.6541268236851536 12.9898027490207006  9.7145333790886230   F   F   F
 18.1020981676851527 12.9898027490207006  9.7145333790886230   F   F   F
 24.5500695116851482 12.9898027490207006  9.7145333790886230   F   F   F
 30.9980408556851508 12.9898027490207006  9.7145333790886230   F   F   F
 37.4460121996851569 12.9898027490207006  9.7145333790886230   F   F   F
 43.8939835436851524 12.9898027490207006  9.7145333790886230   F   F   F
 50.3419548876851550 12.9898027490207006  9.7145333790886230   F   F   F
  7.2694445763851530 19.0987447651206992  9.7145333790886230   F   F   F
 13.7174159203851538 19.0987447651206992  9.7145333790886230   F   F   F
 20.1653872643851528 19.0987447651206992  9.7145333790886230   F   F   F
 26.6133586083851519 19.0987447651206992  9.7145333790886230   F   F   F
 33.0613299523851509 19.0987447651206992  9.7145333790886230   F   F   F
 48.2786657909851513  6.8808607329207012  9.7145333790886230   F   F   F
 56.6605622673104534 22.2425003584152421 21.2016840068396384   T   T   T
 65.1035502015950129 46.7086590083762800 21.2081711068358807   T   T   T
 52.4034609569194245 46.7924898401828244 21.1859199992768090   T   T   T
 20.1584627709146567 28.5321587932983469 21.1466108162416546   T   T   T
 26.7015740973204210 28.2764663506292848 21.3011881136244448   T   T   T
 33.1737100356243033 28.1991280116461596 21.1916707919311804   T   T   T
 39.6089223041363070 28.3437786184056648 21.2884347468905091   T   T   T
 45.9284343434728513 28.4866673999271072 21.0849902153291744   T   T   T
 52.3912039991225527 28.3742544417134681 21.2902228755597562   T   T   T
 58.9840680439991729 28.3627486963562525 21.2673655704295186   T   T   T
 15.6332048440421936 34.5147702578994142 21.2580063187361255   T   T   T
 22.1786579582494348 34.3767058064560374 21.2949756478260213   T   T   T
 28.7347534350412630 34.3117489746166200 21.2481409162140302   T   T   T
 35.1214329891902466 34.5579964354714093 21.1969150644827486   T   T   T
 41.5300547208615356 34.4718074738701787 21.3351816875690368   T   T   T
 48.0764694461112896 34.3793680872225309 21.2640070051409964   T   T   T
 58.7483989187070534 46.6981005888539897 21.1484065209191634   T   T   T
 54.5948944176880602 34.5019161204571319 21.2769199318210269   T   T   T
 17.7181786797005678 40.5491511899549621 21.0987441043346564   T   T   T
 24.5027305579463430 40.6753441138920309 21.2002297642986264   T   T   T
 30.8267869664607446 40.6093546493706796 21.2963756090076863   T   T   T
 37.3776260604407184 40.7715118092795095 21.1467305790626625   T   T   T
 43.6881521572136720 40.4141686821100379 21.3260368606852069   T   T   T
 49.9474755018556920 40.6415236577236811 21.2704271567525254   T   T   T
 56.4027859733590660 40.6250054145842299 21.2721928120713777   T   T   T
 62.6937059143075999 40.5937248708303784 21.2861526259702316   T   T   T
 20.1201513302060597 46.4417600384994884 21.2933295914018252   T   T   T
 26.2496318962722590 46.8540464797977876 21.2254443360026528   T   T   T
 32.7572510617060786 46.8318193335908930 21.2713452883167129   T   T   T
 39.3677277400428807 46.5810685397315680 21.3205218894641177   T   T   T
 45.9651512149479089 46.5698370844419216 21.2505332038346353   T   T   T
 60.9016416369280762 34.6151070289866851 21.1351703975971823   T   T   T
 47.0210469530598729 22.1984923496465925 15.6462197047971063   F   F   F
 53.4690182970598684 22.1984923496465925 15.6462197047971063   F   F   F
 10.3965079857598770 28.3074343657465910 15.6462197047971063   F   F   F
 33.0838451736257539 19.1321370546699825 13.7457805260363646   F   F   F
 26.6358738296257584 19.1321370546699825 13.7457805260363646   F   F   F
 20.1879024856257594 19.1321370546699825 13.7457805260363646   F   F   F
 13.7399311416257532 19.1321370546699825 13.7457805260363646   F   F   F
  7.2919597976257533 19.1321370546699825 13.7457805260363646   F   F   F
 50.3644701089257509 13.0231950385699840 13.7457805260363646   F   F   F
 43.9164987649257483 13.0231950385699840 13.7457805260363646   F   F   F
 37.4685274209257457 13.0231950385699840 13.7457805260363646   F   F   F
 31.0205560769257502 13.0231950385699840 13.7457805260363646   F   F   F
 24.5725847329257583 13.0231950385699840 13.7457805260363646   F   F   F
 18.1246133889257592 13.0231950385699840 13.7457805260363646   F   F   F
 11.6766420449257531 13.0231950385699840 13.7457805260363646   F   F   F
  5.2286707009257531 13.0231950385699840 13.7457805260363646   F   F   F
 39.5318165176257494 19.1321370546699825 13.7457805260363646   F   F   F
 48.3011810122257543  6.9142530224699872 13.7457805260363646   F   F   F
 35.4052383242257491  6.9142530224699872 13.7457805260363646   F   F   F
 28.9572669802257536  6.9142530224699872 13.7457805260363646   F   F   F
 16.0613242922257555  6.9142530224699872 13.7457805260363646   F   F   F
  9.6133529482257547  6.9142530224699872 13.7457805260363646   F   F   F
  3.1653816042257548  6.9142530224699872 13.7457805260363646   F   F   F
 46.2378919155257506  0.8053110063699869 13.7457805260363646   F   F   F
 39.7899205715257480  0.8053110063699869 13.7457805260363646   F   F   F
 33.3419492275257454  0.8053110063699869 13.7457805260363646   F   F   F
 26.8939778835257535  0.8053110063699869 13.7457805260363646   F   F   F
 20.4460065395257544  0.8053110063699869 13.7457805260363646   F   F   F
 13.9980351955257554  0.8053110063699869 13.7457805260363646   F   F   F
  7.5500638515257545  0.8053110063699869 13.7457805260363646   F   F   F
  1.1020925075257542  0.8053110063699869 13.7457805260363646   F   F   F
 41.8532096682257517  6.9142530224699872 13.7457805260363646   F   F   F
 64.8529222532811076 46.5944477486172062  9.9713439191545099   F   F   F
 62.5260903701473865 44.9919776036857542 24.0978888890380816   T   T   T
 49.1089445320590769 47.5130124649941337 22.7448372813720212   T   T   T
 17.2070218342281258 27.8742362672281025 23.1308393332643973   T   T   T
 23.1229671615511876 28.0916286363165000 23.2802928635458670   T   T   T
 29.9194241110951253 27.8937021352137329 23.1616043776316793   T   T   T
 36.2311266862380421 28.0899945719140156 22.9899355799870264   T   T   T
 42.9305008290918977 27.8665386657719658 23.1912273369140145   T   T   T
 48.8049489992834324 28.2799574222373060 23.0773776420762644   T   T   T
 55.6227615691505548 28.1441328740501362 23.0255625359478842   T   T   T
 12.2642782552468876 34.2734373412785303 23.2295238006217559   T   T   T
 18.5881437353720393 34.4053047740633602 23.1982944186925728   T   T   T
 25.2115496856779053 34.1528025121015872 23.2147310623107401   T   T   T
 32.9523157087954885 32.4551191852477032 24.2175356716925911   T   T   T
 38.0943552077668457 34.1170199665704672 23.0982352885157667   T   T   T
 44.9141440994759051 34.0469064215544677 23.2557328321292438   T   T   T
 55.4043345873272060 46.1873206383692363 23.2042713843793251   T   T   T
 51.1906590893880136 34.4574868633402502 23.1409608622607799   T   T   T
 14.0560071440305112 40.5353735752522795 23.0757956138512270   T   T   T
 19.1718717442737230 40.8924334425720915 22.5376200473104333   T   T   T
 27.5474491835189781 40.2567912915944888 23.0888114274848562   T   T   T
 34.2525881480562475 40.1075844624127242 23.1053067740671061   T   T   T
 40.1718715515931422 40.1350882540434313 23.3842121870623032   T   T   T
 47.2693514293682071 39.5150749371341448 23.0290630410057133   T   T   T
 53.0440473999354509 40.4321693897605101 23.0796107638053343   T   T   T
 59.2474090546360728 40.2505403098934025 23.2912499051784785   T   T   T
 16.9864754654642311 45.9771739319568553 23.0319540169375898   T   T   T
 23.2671548934218109 46.1225053797605185 23.1217701612818196   T   T   T
 29.4345752802801250 46.5121304911985902 23.1931507796712495   T   T   T
 35.7937947441848792 46.4099236929160313 23.2004898627134821   T   T   T
 42.7317570560914390 45.8977485182115359 23.1808479174242024   T   T   T
 57.8987558267361422 33.9909961161735197 23.1608243742923783   T   T   T
 10.6607529427156091 28.0862009484046169 22.8363087149628257   T   T   T
 58.4049509092811050 46.5944477486172062  9.9713439191545099   F   F   F
 45.5090082212811069 46.5944477486172062  9.9713439191545099   F   F   F
 30.8078804904811072 22.1586796842172156  9.9713439191545099   F   F   F
 24.3599091464811082 22.1586796842172156  9.9713439191545099   F   F   F
 17.9119378024811091 22.1586796842172156  9.9713439191545099   F   F   F
 11.4639664584811083 22.1586796842172156  9.9713439191545099   F   F   F
 54.5364767697811104 16.0497376681172170  9.9713439191545099   F   F   F
 48.0885054257811078 16.0497376681172170  9.9713439191545099   F   F   F
 41.6405340817811123 16.0497376681172170  9.9713439191545099   F   F   F
 35.1925627377811097 16.0497376681172170  9.9713439191545099   F   F   F
 28.7445913937811035 16.0497376681172170  9.9713439191545099   F   F   F
 22.2966200497811080 16.0497376681172170  9.9713439191545099   F   F   F
 15.8486487057811090 16.0497376681172170  9.9713439191545099   F   F   F
  9.4006773617811081 16.0497376681172170  9.9713439191545099   F   F   F
 52.4731876730811067  9.9407956520172149  9.9713439191545099   F   F   F
 37.2558518344811063 22.1586796842172156  9.9713439191545099   F   F   F
 46.0252163290811040  9.9407956520172149  9.9713439191545099   F   F   F
 33.1292736410811059  9.9407956520172149  9.9713439191545099   F   F   F
 26.6813022970811069  9.9407956520172149  9.9713439191545099   F   F   F
 20.2333309530811079  9.9407956520172149  9.9713439191545099   F   F   F
 13.7853596090811088  9.9407956520172149  9.9713439191545099   F   F   F
  7.3373882650811089  9.9407956520172149  9.9713439191545099   F   F   F
 50.4098985763811100  3.8318536359172146  9.9713439191545099   F   F   F
 43.9619272323811074  3.8318536359172146  9.9713439191545099   F   F   F
 37.5139558883811119  3.8318536359172146  9.9713439191545099   F   F   F
 31.0659845443811058  3.8318536359172146  9.9713439191545099   F   F   F
 24.6180132003811067  3.8318536359172146  9.9713439191545099   F   F   F
 18.1700418563811077  3.8318536359172146  9.9713439191545099   F   F   F
 11.7220705123811086  3.8318536359172146  9.9713439191545099   F   F   F
  5.2740991683811087  3.8318536359172146  9.9713439191545099   F   F   F
 39.5772449850811086  9.9407956520172149  9.9713439191545099   F   F   F
 51.9569795652811095 46.5944477486172062  9.9713439191545099   F   F   F
 43.7038231784811089 22.1586796842172156  9.9713439191545099   F   F   F
 56.5997658664811070 22.1586796842172156  9.9713439191545099   F   F   F
 39.0610368772811114 46.5944477486172062  9.9713439191545099   F   F   F
 32.6130655332811088 46.5944477486172062  9.9713439191545099   F   F   F
 26.1650941892811133 46.5944477486172062  9.9713439191545099   F   F   F
 19.7171228452811071 46.5944477486172062  9.9713439191545099   F   F   F
 62.7896331565811110 40.4855057325172112  9.9713439191545099   F   F   F
 56.3416618125811084 40.4855057325172112  9.9713439191545099   F   F   F
 49.8936904685811129 40.4855057325172112  9.9713439191545099   F   F   F
 43.4457191245811103 40.4855057325172112  9.9713439191545099   F   F   F
 36.9977477805811077 40.4855057325172112  9.9713439191545099   F   F   F
 30.5497764365811086 40.4855057325172112  9.9713439191545099   F   F   F
 24.1018050925811131 40.4855057325172112  9.9713439191545099   F   F   F
 17.6538337485811070 40.4855057325172112  9.9713439191545099   F   F   F
 60.7263440598811073 34.3765637164172162  9.9713439191545099   F   F   F
 50.1517945224811044 22.1586796842172156  9.9713439191545099   F   F   F
 54.2783727158811047 34.3765637164172162  9.9713439191545099   F   F   F
 41.3824300278811066 34.3765637164172162  9.9713439191545099   F   F   F
 34.9344586838811111 34.3765637164172162  9.9713439191545099   F   F   F
 28.4864873398811085 34.3765637164172162  9.9713439191545099   F   F   F
 22.0385159958811094 34.3765637164172162  9.9713439191545099   F   F   F
 15.5905446518811086 34.3765637164172162  9.9713439191545099   F   F   F
 58.6630549631811178 28.2676217003172141  9.9713439191545099   F   F   F
 52.2150836191811081 28.2676217003172141  9.9713439191545099   F   F   F
 45.7671122751811126 28.2676217003172141  9.9713439191545099   F   F   F
 39.3191409311811171 28.2676217003172141  9.9713439191545099   F   F   F
 32.8711695871811074 28.2676217003172141  9.9713439191545099   F   F   F
 26.4231982431811083 28.2676217003172141  9.9713439191545099   F   F   F
 19.9752268991811093 28.2676217003172141  9.9713439191545099   F   F   F
 13.5272555551811084 28.2676217003172141  9.9713439191545099   F   F   F
 47.8304013718811092 34.3765637164172162  9.9713439191545099   F   F   F
  9.3837731677376404 25.2150374817714820 17.5254423054545576   F   F   F
 53.6093775477314693 21.8995093331267334 23.1920175091832128   T   T   T
 40.8483927155872379 21.6582507445084360 23.1662232116216309   T   T   T
 10.6339036676914649  0.8176669346388319 19.4897640236860354   T   T   T
 17.2571048003892038  0.8432818862496069 19.2975655863454882   T   T   T
 23.7692274671084576  0.7197586106355108 19.4140882350910715   T   T   T
 30.1797139342887633  0.7456769006390050 19.4191152731809673   T   T   T
 36.7133328188659576  0.8457893900492534 19.3500219260885018   T   T   T
 43.0244456043570125  1.0251460943232076 19.1800808286451172   T   T   T
 49.4696236767119117  0.7379948956466615 19.4831560401683745   T   T   T
  6.4263619323881480  6.9552117919072618 19.3957143624197172   T   T   T
 12.8487143181408268  6.9301634317329297 19.4147908759773884   T   T   T
 19.5057166224664407  7.0240197683176939 19.3045858476714507   T   T   T
 25.8248177897912967  6.9180154306888664 19.3625549602296729   T   T   T
 32.1167524120612029  6.9514445333390853 19.3697670755590323   T   T   T
 38.5762960090863203  6.9053305126725979 19.3932964133426751   T   T   T
  4.3306624840011390  0.9203679738119187 19.3214265157232035   T   T   T
 45.2493463756871392  7.0078568308300806 19.2575173641651993   T   T   T
  8.5369624758118139 13.0887654284055532 19.3839604162482715   T   T   T
 14.9203634353587145 12.9937826929884057 19.4340501424807037   T   T   T
 21.4819921740789788 13.0115420152160794 19.3713330969112398   T   T   T
 27.9038176530732542 13.1318285316746373 19.2822245299658306   T   T   T
 34.1854061313518045 13.0459117198765142 19.4312847702262346   T   T   T
 40.7808134849051171 13.0505515141613557 19.3669844324616669   T   T   T
 47.1838574189807645 13.0532163900244083 19.4328217343677672   T   T   T
 53.6097796890311145 13.1574405069641767 19.3004145430880527   T   T   T
 10.5501751829664450 19.1686265267042941 19.3961291353747605   T   T   T
 17.0085570710899319 19.1433808668358552 19.4097846271183627   T   T   T
 23.4222490832986878 19.1643349089131689 19.3014377224393918   T   T   T
 29.8705534506983206 19.1417116258560860 19.3954056384305211   T   T   T
 36.4135568883538880 19.0796959014788960 19.4114585261216135   T   T   T
 51.4010480434422163  6.8385744814386200 19.5297052565112708   T   T   T
 42.8517805048019795 19.2356732358156819 19.2777658425384217   T   T   T
 61.7221746838598690 46.6342604140465937 15.6462197047971063   F   F   F
 48.8262319958598638 46.6342604140465937 15.6462197047971063   F   F   F
 16.8444793297598778 28.3074343657465910 15.6462197047971063   F   F   F
 23.2924506737598769 28.3074343657465910 15.6462197047971063   F   F   F
 29.7404220177598759 28.3074343657465910 15.6462197047971063   F   F   F
 36.1883933617598714 28.3074343657465910 15.6462197047971063   F   F   F
 42.6363647057598740 28.3074343657465910 15.6462197047971063   F   F   F
 49.0843360497598766 28.3074343657465910 15.6462197047971063   F   F   F
 55.5323073937598792 28.3074343657465910 15.6462197047971063   F   F   F
 12.4597970824598754 34.4163763818465895 15.6462197047971063   F   F   F
 18.9077684264598744 34.4163763818465895 15.6462197047971063   F   F   F
 25.3557397704598735 34.4163763818465895 15.6462197047971063   F   F   F
 31.8037111144598725 34.4163763818465895 15.6462197047971063   F   F   F
 38.2516824584598751 34.4163763818465895 15.6462197047971063   F   F   F
 44.6996538024598706 34.4163763818465895 15.6462197047971063   F   F   F
 55.2742033398598736 46.6342604140465937 15.6462197047971063   F   F   F
 51.1476251464598732 34.4163763818465895 15.6462197047971063   F   F   F
 14.5230861791598755 40.5253183979465845 15.6462197047971063   F   F   F
 20.9710575231598746 40.5253183979465845 15.6462197047971063   F   F   F
 27.4190288671598736 40.5253183979465845 15.6462197047971063   F   F   F
 33.8670002111598762 40.5253183979465845 15.6462197047971063   F   F   F
 40.3149715551598717 40.5253183979465845 15.6462197047971063   F   F   F
 46.7629428991598743 40.5253183979465845 15.6462197047971063   F   F   F
 53.2109142431598769 40.5253183979465845 15.6462197047971063   F   F   F
 59.6588855871598795 40.5253183979465845 15.6462197047971063   F   F   F
 16.5863752758598793 46.6342604140465937 15.6462197047971063   F   F   F
 23.0343466198598783 46.6342604140465937 15.6462197047971063   F   F   F
 29.4823179638598774 46.6342604140465937 15.6462197047971063   F   F   F
 35.9302893078598728 46.6342604140465937 15.6462197047971063   F   F   F
 42.3782606518598755 46.6342604140465937 15.6462197047971063   F   F   F
 57.5955964904598758 34.4163763818465895 15.6462197047971063   F   F   F
 47.0724744281031633 21.9707731385279246 22.8868442839769060   T   T   T
 49.0515547356969535 19.1140767317691562 19.4288274632921230   T   T   T
 12.7004691446006621 25.2212775216949474 19.2686063478548562   T   T   T
  8.1474825009030543  3.7312513029942527 23.5195494840715682   T   T   T
 15.7465900063397921  3.3348042081208211 23.2395252291074321   T   T   T
 21.7387653981534612  3.4694755106581954 23.1810276925415018   T   T   T
 27.9557492100147904  3.3696673046603900 23.2617665436467469   T   T   T
 33.8091241643578968  5.6252197419969878 22.3650486802012409   T   T   T
 41.1375082042995217  3.2504169722323430 22.9501659703707759   T   T   T
 47.1171144520553895  3.3734853561135565 23.1477989135546345   T   T   T
  3.9482098037738309  9.7288884132949249 23.1467534847372640   T   T   T
 10.8090099414756224  9.4232576785931155 23.1498458859931162   T   T   T
 17.0572507043594825  9.8885985196188102 23.1449386818583953   T   T   T
 24.2485614033985968  9.5602701114759761 23.0130280229584692   T   T   T
 29.9999929158552732 12.0722309572769593 22.6946224691796061   T   T   T
 36.4886913243668047  9.4013378084484351 22.9937411215731160   T   T   T
  2.3300977018426758  2.7241031874349493 23.2091423453728680   T   T   T
 43.3092799660473347  9.5189124686121893 23.1980289750819608   T   T   T
  6.7805915075086398 14.5315626449020012 23.8253880568175589   T   T   T
 12.5250160560676740 16.0848225626636605 23.6340662878730647   T   T   T
 20.0898900678751531 16.3876094206377338 24.2165125399549268   T   T   T
 25.9062320461195696 15.6292641210011674 23.2202156599594858   T   T   T
 32.1726594601506903 15.6208530730313448 23.3134045938624688   T   T   T
 40.2044341303429675 17.0037085019083705 24.4837832714601049   T   T   T
 44.7982494521775365 15.7070870690300222 23.1544911380648841   T   T   T
 51.5975818197541614 15.5956833941865280 23.3029759200983229   T   T   T
  7.9687956128462032 22.2627661264164161 23.0171134109670419   T   T   T
 14.6975292651145484 22.0367751311501969 23.0911383642450012   T   T   T
 21.4762856449031361 21.9317379276044626 22.8904320775936618   T   T   T
 27.9026884479265611 21.9463022215664481 23.7705152401089741   T   T   T
 34.0317100903968992 21.7690731124657866 23.0932764465363292   T   T   T
 49.6194899634803619  9.4507426793145370 23.2175186008913705   T   T   T
 55.7255406348995592 19.1340920497429785 19.3703471677741774   T   T   T
 63.8802899899876664 43.6041087199927588 19.4391516904564163   T   T   T
 50.9886022358103261 43.5370205463476694 19.5039343469689896   T   T   T
 19.1328484443109268 25.3123146363871534 19.2942832783052296   T   T   T
 25.3845203700165953 25.2609709479679267 19.5000273577122272   T   T   T
 31.9894162404063920 25.1441227485821628 19.4212306196265949   T   T   T
 38.5133900014610049 25.2144612671086463 19.3804531559886613   T   T   T
 44.9017078119934396 25.3074773312256127 19.2956610473307286   T   T   T
 51.1712070509766619 25.3084681813510279 19.4885129786914604   T   T   T
 57.7161266144755984 25.2595498750538816 19.4348099723179075   T   T   T
 14.5458491194057213 31.3862126425981387 19.4878550296527280   T   T   T
 21.0885467162384970 31.3856602533984415 19.4318448281396421   T   T   T
 27.6487704766308546 31.3377610335520700 19.3846087381395300   T   T   T
 34.0426917349328519 31.3518212418189961 19.4074862737476082   T   T   T
 40.4835715441367796 31.3625313449716430 19.4203834622491556   T   T   T
 46.9685047229159878 31.3694892668797003 19.3833883870208332   T   T   T
 57.4932833043073970 43.6926127449992663 19.2955936765462326   T   T   T
 53.4915644052713262 31.3340731193547128 19.3768473953189933   T   T   T
 16.7469103317166024 37.4671534188183273 19.3290168683745982   T   T   T
 23.3200853371045866 37.4504906148663181 19.3212705068126027   T   T   T
 29.7308629599024066 37.4224371005803675 19.3927078683910672   T   T   T
 36.1253013891198620 37.5841303125524178 19.2823775518346743   T   T   T
 42.3158474036098653 37.4640479478812978 19.5126921935392801   T   T   T
 48.9870821891256227 37.4769211768060657 19.4312185764652980   T   T   T
 55.4421450050709126 37.5009353752626140 19.3933511216101024   T   T   T
 61.8356893238473830 37.5243817990180375 19.4207762935711621   T   T   T
 18.8919739547796262 43.5428046988035220 19.4154184779995767   T   T   T
 25.3481039984697567 43.6360873162531675 19.2827235576174267   T   T   T
 31.5231407922021347 43.6079068480038288 19.4918857730340989   T   T   T
 38.2177331640404816 43.6343296901991451 19.3593160893393161   T   T   T
 44.5914206047468085 43.6215337305391841 19.3220935538457645   T   T   T
 59.8737050186031610 31.4156272956527509 19.2998949873192167   T   T   T
 45.9797878616257520 19.1321370546699825 13.7457805260363646   F   F   F
 52.4562834790376442 19.1060954656714834 17.5254423054545576   F   F   F
 39.5603407910376390 19.1060954656714834 17.5254423054545576   F   F   F
  2.1709232311185183  3.8661109027844298 11.9109239597412113   F   F   F
  8.6188945751185191  3.8661109027844298 11.9109239597412113   F   F   F
 15.0668659191185181  3.8661109027844298 11.9109239597412113   F   F   F
 21.5148372631185190  3.8661109027844298 11.9109239597412113   F   F   F
 27.9628086071185180  3.8661109027844298 11.9109239597412113   F   F   F
 34.4107799511185206  3.8661109027844298 11.9109239597412113   F   F   F
 40.8587512951185161  3.8661109027844298 11.9109239597412113   F   F   F
 47.3067226391185187  3.8661109027844298 11.9109239597412113   F   F   F
  4.2342123278185184  9.9750529188844315 11.9109239597412113   F   F   F
 10.6821836718185192  9.9750529188844315 11.9109239597412113   F   F   F
 17.1301550158185201  9.9750529188844315 11.9109239597412113   F   F   F
 23.5781263598185191  9.9750529188844315 11.9109239597412113   F   F   F
 30.0260977038185182  9.9750529188844315 11.9109239597412113   F   F   F
 59.9612501336983215 43.4180454403826417 21.5445703524301599   T   T   T
 36.4740690478185172  9.9750529188844315 11.9109239597412113   F   F   F
 49.3700117358185153  9.9750529188844315 11.9109239597412113   F   F   F
  6.2975014245185186 16.0839949349844318 11.9109239597412113   F   F   F
 12.7454727685185194 16.0839949349844318 11.9109239597412113   F   F   F
 19.1934441125185202 16.0839949349844318 11.9109239597412113   F   F   F
 25.6414154565185193 16.0839949349844318 11.9109239597412113   F   F   F
 32.0893868005185183 16.0839949349844318 11.9109239597412113   F   F   F
 38.5373581445185209 16.0839949349844318 11.9109239597412113   F   F   F
 44.9853294885185164 16.0839949349844318 11.9109239597412113   F   F   F
 51.4333008325185190 16.0839949349844318 11.9109239597412113   F   F   F
  8.3607905212185187 22.1929369510844303 11.9109239597412113   F   F   F
 14.8087618652185196 22.1929369510844303 11.9109239597412113   F   F   F
 21.2567332092185239 22.1929369510844303 11.9109239597412113   F   F   F
 27.7047045532185265 22.1929369510844303 11.9109239597412113   F   F   F
 42.9220403918185127  9.9750529188844315 11.9109239597412113   F   F   F
 34.1526758972185149 22.1929369510844303 11.9109239597412113   F   F   F
 54.2902490229085259 43.5465040602227944 21.2221018630945117   T   T   T
 41.5429702482096772 43.2571435579719292 21.2469376904429943   T   T   T
  9.4427168315569645 25.2826857426900098 21.1593552722607789   T   T   T
 16.0694116930106787 25.1543776371802572 21.2197381628769470   T   T   T
 21.8827116631895180 25.3492952795046982 21.2446176140380558   T   T   T
 28.6143454201996335 24.9306122635960747 21.2809714355399713   T   T   T
 35.2706986942528289 25.1199316196142668 21.2069973539432048   T   T   T
 41.8182714496015109 25.1540420746792179 21.3093546185884364   T   T   T
 47.6140284394587852 25.3652951277708283 21.2191934330745475   T   T   T
 54.3337919000998539 25.0973075326521347 21.2809178276694908   T   T   T
 11.0387955889456961 31.4273031143595070 21.2606575084601239   T   T   T
 17.6152476183890769 31.2645492482650624 21.3161355833531196   T   T   T
 24.3974465969101963 31.3062867046613462 21.1083220686158057   T   T   T
 30.8616590288637411 31.2763774364631928 21.1710889876036390   T   T   T
 37.1193266334747776 31.3119372757385044 21.2579549472206253   T   T   T
 47.2802015228621784 43.4465669422801142 21.1684436380973615   T   T   T
 43.7336972405340276 31.3254967986851121 21.1918027417012382   T   T   T
 56.8292934799358420 31.2287336321337818 21.2775922116021619   T   T   T
 13.4061639424488774 37.5053664238066489 21.1427800175140135   T   T   T
 20.1272509518160554 37.6966145803476564 21.1588818242309138   T   T   T
 26.4495839857577870 37.3829549670426360 21.2561843489144344   T   T   T
 33.0430663419550470 37.4112242599847562 21.2658100659989060   T   T   T
 38.8327733136106232 37.5901994652691798 21.2056215225157132   T   T   T
 45.5194052303221568 37.2712975184523714 21.0429670142708183   T   T   T
 52.1717877348513994 37.5417882887193102 21.1386078393028356   T   T   T
 58.5870972752700041 37.4205661843077806 21.1944575499400116   T   T   T
 15.3626456383036434 43.4859777974607411 21.2127134243525397   T   T   T
 22.2625110914964992 43.3879358998867843 21.2836723201073141   T   T   T
 28.0660806409062893 43.7273976089469585 21.2953277277292194   T   T   T
 34.6680878149241991 43.6372370190203256 21.1175542400872587   T   T   T
 50.2266097098967137 31.3536853517742102 21.2450772091919546   T   T   T
 52.3885335641747218 19.0675670348732140 21.0861129506656724   T   T   T
 40.6006472412185175 22.1929369510844303 11.9109239597412113   F   F   F
 53.4965899292185156 22.1929369510844303 11.9109239597412113   F   F   F
  4.3546022594985310  0.7792694173714815 15.6670670430993493   F   F   F
 10.8025736034985300  0.7792694173714815 15.6670670430993493   F   F   F
 17.2505449474985255  0.7792694173714815 15.6670670430993493   F   F   F
 23.6985162914985281  0.7792694173714815 15.6670670430993493   F   F   F
 30.1464876354985272  0.7792694173714815 15.6670670430993493   F   F   F
 36.5944589794985262  0.7792694173714815 15.6670670430993493   F   F   F
 43.0424303234985288  0.7792694173714815 15.6670670430993493   F   F   F
 49.4904016674985243  0.7792694173714815 15.6670670430993493   F   F   F
  6.4178913561985311  6.8882114334714828 15.6670670430993493   F   F   F
 12.8658627001985302  6.8882114334714828 15.6670670430993493   F   F   F
 19.3138340441985257  6.8882114334714828 15.6670670430993493   F   F   F
 25.7618053881985283  6.8882114334714828 15.6670670430993493   F   F   F
 32.2097767321985202  6.8882114334714828 15.6670670430993493   F   F   F
 61.7497463160185163 46.6287050154844351 11.9109239597412113   F   F   F
 38.6577480761985299  6.8882114334714828 15.6670670430993493   F   F   F
 51.5536907641985280  6.8882114334714828 15.6670670430993493   F   F   F
  8.4811804528985313 12.9971534495714813 15.6670670430993493   F   F   F
 14.9291517968985303 12.9971534495714813 15.6670670430993493   F   F   F
 21.3771231408985258 12.9971534495714813 15.6670670430993493   F   F   F
 27.8250944848985284 12.9971534495714813 15.6670670430993493   F   F   F
 34.2730658288985381 12.9971534495714813 15.6670670430993493   F   F   F
 40.7210371728985265 12.9971534495714813 15.6670670430993493   F   F   F
 47.1690085168985291 12.9971534495714813 15.6670670430993493   F   F   F
 53.6169798608985246 12.9971534495714813 15.6670670430993493   F   F   F
 10.5444695495985314 19.1060954656714834 15.6670670430993493   F   F   F
 16.9924408935985305 19.1060954656714834 15.6670670430993493   F   F   F
 23.4404122375985260 19.1060954656714834 15.6670670430993493   F   F   F
 29.8883835815985286 19.1060954656714834 15.6670670430993493   F   F   F
 45.1057194201985325  6.8882114334714828 15.6670670430993493   F   F   F
 47.0486185852185130 22.1929369510844303 11.9109239597412113   F   F   F
 55.3017749720185066 46.6287050154844351 11.9109239597412113   F   F   F
 42.4058322840185156 46.6287050154844351 11.9109239597412113   F   F   F
 10.4240796179185189 28.3018789671844324 11.9109239597412113   F   F   F
 16.8720509619185215 28.3018789671844324 11.9109239597412113   F   F   F
 23.3200223059185205 28.3018789671844324 11.9109239597412113   F   F   F
 29.7679936499185196 28.3018789671844324 11.9109239597412113   F   F   F
 36.2159649939185186 28.3018789671844324 11.9109239597412113   F   F   F
 42.6639363379185212 28.3018789671844324 11.9109239597412113   F   F   F
 49.1119076819185167 28.3018789671844324 11.9109239597412113   F   F   F
 55.5598790259185193 28.3018789671844324 11.9109239597412113   F   F   F
 12.4873687146185173 34.4108209832844238 11.9109239597412113   F   F   F
 18.9353400586185217 34.4108209832844238 11.9109239597412113   F   F   F
 25.3833114026185243 34.4108209832844238 11.9109239597412113   F   F   F
 31.8312827466185233 34.4108209832844238 11.9109239597412113   F   F   F
 38.2792540906185152 34.4108209832844238 11.9109239597412113   F   F   F
 48.8538036280185111 46.6287050154844351 11.9109239597412113   F   F   F
 44.7272254346185179 34.4108209832844238 11.9109239597412113   F   F   F
 57.6231681226185160 34.4108209832844238 11.9109239597412113   F   F   F
 14.5506578113185192 40.5197629993844330 11.9109239597412113   F   F   F
 20.9986291553185218 40.5197629993844330 11.9109239597412113   F   F   F
 27.4466004993185209 40.5197629993844330 11.9109239597412113   F   F   F
 33.8945718433185164 40.5197629993844330 11.9109239597412113   F   F   F
 40.3425431873185190 40.5197629993844330 11.9109239597412113   F   F   F
 46.7905145313185216 40.5197629993844330 11.9109239597412113   F   F   F
 53.2384858753185171 40.5197629993844330 11.9109239597412113   F   F   F
 59.6864572193185197 40.5197629993844330 11.9109239597412113   F   F   F
 16.6139469080185194 46.6287050154844351 11.9109239597412113   F   F   F
 23.0619182520185220 46.6287050154844351 11.9109239597412113   F   F   F
 29.5098895960185210 46.6287050154844351 11.9109239597412113   F   F   F
 35.9578609400185201 46.6287050154844351 11.9109239597412113   F   F   F
 51.1751967786185133 34.4108209832844238 11.9109239597412113   F   F   F
 36.3363549255985276 19.1060954656714834 15.6670670430993493   F   F   F
 45.5818157091148777 19.1959409597371611 21.2432842978294616   T   T   T
 33.0478142360903675 18.9020394114961512 21.2022116276987020   T   T   T
  5.3673371742403218  3.8716663013465920 17.5462896789491865   F   F   F
 11.8153085182403217  3.8716663013465920 17.5462896789491865   F   F   F
 18.2632798622403207  3.8716663013465920 17.5462896789491865   F   F   F
 24.7112512062403198  3.8716663013465920 17.5462896789491865   F   F   F
 31.1592225502403188  3.8716663013465920 17.5462896789491865   F   F   F
 37.6071938942403179  3.8716663013465920 17.5462896789491865   F   F   F
 44.0551652382403205  3.8716663013465920 17.5462896789491865   F   F   F
 50.5031365822403231  3.8716663013465920 17.5462896789491865   F   F   F
  7.4306262709403219  9.9806083174465918 17.5462896789491865   F   F   F
 13.8785976149403218  9.9806083174465918 17.5462896789491865   F   F   F
 20.3265689589403209  9.9806083174465918 17.5462896789491865   F   F   F
 26.7745403029403199  9.9806083174465918 17.5462896789491865   F   F   F
 33.2225116469403190  9.9806083174465918 17.5462896789491865   F   F   F
 60.6809155924257553 43.5679051190699909 13.7457805260363646   F   F   F
 39.6704829909403216  9.9806083174465918 17.5462896789491865   F   F   F
 52.5664256789403268  9.9806083174465918 17.5462896789491865   F   F   F
  9.4939153676403212 16.0895503335465868 17.5462896789491865   F   F   F
 15.9418867116403202 16.0895503335465868 17.5462896789491865   F   F   F
 22.3898580556403211 16.0895503335465868 17.5462896789491865   F   F   F
 28.8378293996403201 16.0895503335465868 17.5462896789491865   F   F   F
 35.2858007436403156 16.0895503335465868 17.5462896789491865   F   F   F
 41.7337720876403182 16.0895503335465868 17.5462896789491865   F   F   F
 48.1817434316403208 16.0895503335465868 17.5462896789491865   F   F   F
 54.6297147756403234 16.0895503335465868 17.5462896789491865   F   F   F
 11.5572044643403213 22.1984923496465925 17.5462896789491865   F   F   F
 18.0051758083403222 22.1984923496465925 17.5462896789491865   F   F   F
 24.4531471523403212 22.1984923496465925 17.5462896789491865   F   F   F
 30.9011184963403203 22.1984923496465925 17.5462896789491865   F   F   F
 46.1184543349403313  9.9806083174465918 17.5462896789491865   F   F   F
 37.3490898403403193 22.1984923496465925 17.5462896789491865   F   F   F
 54.2329442484257527 43.5679051190699909 13.7457805260363646   F   F   F
 41.3370015604257546 43.5679051190699909 13.7457805260363646   F   F   F
  9.3552488943257543 25.2410790707699881 13.7457805260363646   F   F   F
 15.8032202383257552 25.2410790707699881 13.7457805260363646   F   F   F
 22.2511915823257596 25.2410790707699881 13.7457805260363646   F   F   F
 28.6991629263257622 25.2410790707699881 13.7457805260363646   F   F   F
 35.1471342703257505 25.2410790707699881 13.7457805260363646   F   F   F
 41.5951056143257460 25.2410790707699881 13.7457805260363646   F   F   F
 48.0430769583257486 25.2410790707699881 13.7457805260363646   F   F   F
 54.4910483023257513 25.2410790707699881 13.7457805260363646   F   F   F
 11.4185379910257545 31.3500210868699867 13.7457805260363646   F   F   F
 17.8665093350257536 31.3500210868699867 13.7457805260363646   F   F   F
 24.3144806790257597 31.3500210868699867 13.7457805260363646   F   F   F
 30.7624520230257623 31.3500210868699867 13.7457805260363646   F   F   F
 37.2104233670257543 31.3500210868699867 13.7457805260363646   F   F   F
 47.7849729044257501 43.5679051190699909 13.7457805260363646   F   F   F
 43.6583947110257498 31.3500210868699867 13.7457805260363646   F   F   F
 56.5543373990257550 31.3500210868699867 13.7457805260363646   F   F   F
 13.4818270877257547 37.4589631029699888 13.7457805260363646   F   F   F
 19.9297984317257537 37.4589631029699888 13.7457805260363646   F   F   F
 26.3777697757257599 37.4589631029699888 13.7457805260363646   F   F   F
 32.8257411197257625 37.4589631029699888 13.7457805260363646   F   F   F
 39.2737124637257509 37.4589631029699888 13.7457805260363646   F   F   F
 45.7216838077257464 37.4589631029699888 13.7457805260363646   F   F   F
 52.1696551517257490 37.4589631029699888 13.7457805260363646   F   F   F
 58.6176264957257516 37.4589631029699888 13.7457805260363646   F   F   F
 15.5451161844257548 43.5679051190699909 13.7457805260363646   F   F   F
 21.9930875284257539 43.5679051190699909 13.7457805260363646   F   F   F
 28.4410588724257600 43.5679051190699909 13.7457805260363646   F   F   F
 34.8890302164257520 43.5679051190699909 13.7457805260363646   F   F   F
 50.1063660550257524 31.3500210868699867 13.7457805260363646   F   F   F
 39.8107362308350190 19.0007548808754017 21.0983775168342902   T   T   T
 43.7970611843403148 22.1984923496465925 17.5462896789491865   F   F   F
 56.6930038723403200 22.1984923496465925 17.5462896789491865   F   F   F
  1.3708540617935197  0.4824735383172341 21.2103083026314927   T   T   T
  7.0371280217769350  0.9952835324081936 21.1941344350341581   T   T   T
 13.8941022237038077  0.8823069223926742 21.0835191704416758   T   T   T
 20.4164757204448613  0.7833813093786289 21.2266173933785538   T   T   T
 27.0073228762068211  0.5476942199621868 21.1598796497224555   T   T   T
 33.0477735859267767  0.1627417126990428 21.4075162408138056   T   T   T
 40.0129988590045755  0.6051284900332532 21.2434088804763377   T   T   T
 45.8371198214984048  0.7729101537665436 21.1241130805850474   T   T   T
  3.2225551560663277  7.0077188906850960 21.0836734521716913   T   T   T
  9.5011171927347622  6.8299075253925183 21.0896068374606784   T   T   T
 16.1277242905287217  6.8558964864264675 21.2112471534092535   T   T   T
 22.7415575081207137  6.6927265498796222 21.3287791779548357   T   T   T
 28.4292722938926978  6.3612234404440571 21.5409311092393807   T   T   T
 64.9461602591403278 46.6342604140465937 17.5462896789491865   F   F   F
 35.1749066836229858  6.6335466704720716 21.1689392164911823   T   T   T
 47.9494235528097050  6.9724235474598499 21.2746876288552720   T   T   T
  4.4760283313801148 12.8981065535144364 21.5572811358060186   T   T   T
 11.3102702062444465 12.9768766724972977 21.4570218617489594   T   T   T
 18.2270412021709269 13.1779862657585713 21.1133814664781099   T   T   T
 24.8136966318293410 12.9097273561471759 21.1580900019579126   T   T   T
 30.8832439823542373 12.9399475400303174 21.0828795433457650   T   T   T
 37.5013790228233788 12.9657641206490766 21.0540839982864583   T   T   T
 43.6969526404530129 12.8044471230399388 21.3212807428561497   T   T   T
 50.4746938725623480 12.9362289540713427 21.2281300477420984   T   T   T
  7.1635243014241592 19.2283357808866029 21.2478135965244164   T   T   T
 13.6821418246224891 19.1427875616922485 21.1136958048114032   T   T   T
 20.1886760238395198 19.0558805077317501 21.1407125652448968   T   T   T
 26.4444447917402101 19.2677461840527577 21.1535327657036412   T   T   T
 42.2848296590222645  6.7488865141467995 21.0467256123018664   T   T   T
 50.2450325283403103 22.1984923496465925 17.5462896789491865   F   F   F
 58.4981889151403109 46.6342604140465937 17.5462896789491865   F   F   F
 45.6022462271403199 46.6342604140465937 17.5462896789491865   F   F   F
 13.6204935610403215 28.3074343657465910 17.5462896789491865   F   F   F
 20.0684649050403223 28.3074343657465910 17.5462896789491865   F   F   F
 26.5164362490403214 28.3074343657465910 17.5462896789491865   F   F   F
 32.9644075930403204 28.3074343657465910 17.5462896789491865   F   F   F
 39.4123789370403159 28.3074343657465910 17.5462896789491865   F   F   F
 45.8603502810403185 28.3074343657465910 17.5462896789491865   F   F   F
 52.3083216250403211 28.3074343657465910 17.5462896789491865   F   F   F
 58.7562929690403237 28.3074343657465910 17.5462896789491865   F   F   F
 15.6837826577403199 34.4163763818465895 17.5462896789491865   F   F   F
 22.1317540017403189 34.4163763818465895 17.5462896789491865   F   F   F
 28.5797253457403180 34.4163763818465895 17.5462896789491865   F   F   F
 35.0276966897403170 34.4163763818465895 17.5462896789491865   F   F   F
 41.4756680337403196 34.4163763818465895 17.5462896789491865   F   F   F
 52.0502175711403154 46.6342604140465937 17.5462896789491865   F   F   F
 47.9236393777403151 34.4163763818465895 17.5462896789491865   F   F   F
 60.8195820657403203 34.4163763818465895 17.5462896789491865   F   F   F
 17.7470717544403271 40.5253183979465845 17.5462896789491865   F   F   F
 24.1950430984403191 40.5253183979465845 17.5462896789491865   F   F   F
 30.6430144424403181 40.5253183979465845 17.5462896789491865   F   F   F
 37.0909857864403207 40.5253183979465845 17.5462896789491865   F   F   F
 43.5389571304403162 40.5253183979465845 17.5462896789491865   F   F   F
 49.9869284744403188 40.5253183979465845 17.5462896789491865   F   F   F
 56.4348998184403214 40.5253183979465845 17.5462896789491865   F   F   F
 62.8828711624403240 40.5253183979465845 17.5462896789491865   F   F   F
 19.8103608511403237 46.6342604140465937 17.5462896789491865   F   F   F
 26.2583321951403228 46.6342604140465937 17.5462896789491865   F   F   F
 32.7063035391403218 46.6342604140465937 17.5462896789491865   F   F   F
 39.1542748831403173 46.6342604140465937 17.5462896789491865   F   F   F
 54.3716107217403177 34.4163763818465895 17.5462896789491865   F   F   F
 42.7843262695985302 19.1060954656714834 15.6670670430993493   F   F   F
 49.2322976135985328 19.1060954656714834 15.6670670430993493   F   F   F
 55.6802689575985283 19.1060954656714834 15.6670670430993493   F   F   F
 11.8317980050230105  3.8363006524757042 13.7484707469786436   F   F   F
 18.2797693490230095  3.8363006524757042 13.7484707469786436   F   F   F
 24.7277406930230121  3.8363006524757042 13.7484707469786436   F   F   F
 31.1757120370230112  3.8363006524757042 13.7484707469786436   F   F   F
 37.6236833810230209  3.8363006524757042 13.7484707469786436   F   F   F
 44.0716547250230164  3.8363006524757042 13.7484707469786436   F   F   F
 50.5196260690230119  3.8363006524757042 13.7484707469786436   F   F   F
  7.4471157577230116  9.9452426685757054 13.7484707469786436   F   F   F
 13.8950871017230106  9.9452426685757054 13.7484707469786436   F   F   F
 20.3430584457230097  9.9452426685757054 13.7484707469786436   F   F   F
 26.7910297897230123  9.9452426685757054 13.7484707469786436   F   F   F
 33.2390011337230149  9.9452426685757054 13.7484707469786436   F   F   F
 39.6869724777230104  9.9452426685757054 13.7484707469786436   F   F   F
  5.3838266610230114  3.8363006524757042 13.7484707469786436   F   F   F
 46.1349438217230130  9.9452426685757054 13.7484707469786436   F   F   F
  9.5104048544230118 16.0541846846757039 13.7484707469786436   F   F   F
 15.9583761984230108 16.0541846846757039 13.7484707469786436   F   F   F
 22.4063475424230099 16.0541846846757039 13.7484707469786436   F   F   F
 28.8543188864230125 16.0541846846757039 13.7484707469786436   F   F   F
 35.3022902304230115 16.0541846846757039 13.7484707469786436   F   F   F
 41.7502615744229999 16.0541846846757039 13.7484707469786436   F   F   F
 48.1982329184230096 16.0541846846757039 13.7484707469786436   F   F   F
 54.6462042624230051 16.0541846846757039 13.7484707469786436   F   F   F
 11.5736939511230119 22.1631267007757060 13.7484707469786436   F   F   F
 18.0216652951230110 22.1631267007757060 13.7484707469786436   F   F   F
 24.4696366391230100 22.1631267007757060 13.7484707469786436   F   F   F
 30.9176079831230126 22.1631267007757060 13.7484707469786436   F   F   F
 37.3655793271230081 22.1631267007757060 13.7484707469786436   F   F   F
 52.5829151657230085  9.9452426685757054 13.7484707469786436   F   F   F
 43.8135506711230107 22.1631267007757060 13.7484707469786436   F   F   F
 63.7351502022254124 43.4977150113044715 23.3624171437608474   T   T   T
 49.4574528150921111 44.4337942382848468 22.9495215374678949   T   T   T
 20.2146536420327152 25.1183526921320173 22.5601482623753000   T   T   T
 24.9168644238197530 25.4605176246508478 23.4385596807735723   T   T   T
 32.0835206588353259 24.9500415740676011 22.9914012505382495   T   T   T
 38.6939968480880694 25.1717991816972919 22.9082050265649855   T   T   T
 45.9757575590015790 25.1744894202676939 22.5731401467152644   T   T   T
 50.4985158745166203 25.5806857063116944 23.4654297295582310   T   T   T
 57.7418612832642069 25.1812103097832285 23.0393676312630618   T   T   T
 13.9500846351691212 31.5259640051683938 23.5428696537641216   T   T   T
 20.4264908112222869 31.5666557549626390 23.2606300361357761   T   T   T
 27.0587363720122589 31.4050664463853728 23.2214014411136525   T   T   T
 34.0334026293249465 31.1390254291361614 23.0860215643506486   T   T   T
 39.8162355008963900 31.3067906470863342 23.2643221065153583   T   T   T
 47.0079448215835072 31.0884439359908740 23.2307021011901114   T   T   T
 58.2167390250503018 43.5599875191983372 22.5263764058170715   T   T   T
 53.5620662037653119 31.4539576759490878 22.9567222051790054   T   T   T
 16.1242028796281112 37.8876562507533308 23.0041077886550944   T   T   T
 23.0043466714202474 39.5362536239428550 22.0488187969631753   T   T   T
 29.7832801090491976 37.3215761316991177 22.9031993746731857   T   T   T
 37.2462469748768967 37.3624269662849500 22.5036666795596254   T   T   T
 41.6926677953591351 37.5170462978317119 23.2384306517017372   T   T   T
 47.8592938777097885 37.6207250256132397 23.0756209513040567   T   T   T
 54.7573288655680130 37.5036393011960456 23.3106589085320870   T   T   T
 61.2202202591997704 37.6135663866556200 23.4441390013611866   T   T   T
 18.7521727121629347 42.8623079737515553 23.1324093056221116   T   T   T
 26.3957572576062276 43.4632874372876614 22.5882592832847031   T   T   T
 30.9955209475454687 43.6344689620908355 23.3068567742964277   T   T   T
 37.6598021565578662 43.5640449469175124 22.9319760914698847   T   T   T
 45.7012022445344215 43.2002560160095896 22.5014172029935544   T   T   T
 60.9454380734771277 31.2429886699852588 22.5794723741542320   T   T   T
 12.8999567502193973 25.2980766020177761 22.7064802655486773   T   T   T
 50.2615220151230133 22.1631267007757060 13.7484707469786436   F   F   F
 13.6369830478230138 28.2720687168757081 13.7484707469786436   F   F   F
  7.5785881249376397  0.7792694173714815 17.5254423054545576   F   F   F
 14.0265594689376396  0.7792694173714815 17.5254423054545576   F   F   F
 20.4745308129376369  0.7792694173714815 17.5254423054545576   F   F   F
 26.9225021569376359  0.7792694173714815 17.5254423054545576   F   F   F
 33.3704735009376350  0.7792694173714815 17.5254423054545576   F   F   F
 39.8184448449376376  0.7792694173714815 17.5254423054545576   F   F   F
 46.2664161889376402  0.7792694173714815 17.5254423054545576   F   F   F
  3.1939058776376399  6.8882114334714828 17.5254423054545576   F   F   F
  9.6418772216376389  6.8882114334714828 17.5254423054545576   F   F   F
 16.0898485656376344  6.8882114334714828 17.5254423054545576   F   F   F
 22.5378199096376370  6.8882114334714828 17.5254423054545576   F   F   F
 28.9857912536376325  6.8882114334714828 17.5254423054545576   F   F   F
 35.4337625976376387  6.8882114334714828 17.5254423054545576   F   F   F
  1.1306167809376395  0.7792694173714815 17.5254423054545576   F   F   F
 41.8817339416376413  6.8882114334714828 17.5254423054545576   F   F   F
  5.2571949743376392 12.9971534495714813 17.5254423054545576   F   F   F
 11.7051663183376391 12.9971534495714813 17.5254423054545576   F   F   F
 18.1531376623376381 12.9971534495714813 17.5254423054545576   F   F   F
 24.6011090063376372 12.9971534495714813 17.5254423054545576   F   F   F
 31.0490803503376362 12.9971534495714813 17.5254423054545576   F   F   F
 37.4970516943376353 12.9971534495714813 17.5254423054545576   F   F   F
 43.9450230383376379 12.9971534495714813 17.5254423054545576   F   F   F
 50.3929943823376405 12.9971534495714813 17.5254423054545576   F   F   F
  7.3204840710376393 19.1060954656714834 17.5254423054545576   F   F   F
 13.7684554150376393 19.1060954656714834 17.5254423054545576   F   F   F
 20.2164267590376383 19.1060954656714834 17.5254423054545576   F   F   F
 26.6643981030376374 19.1060954656714834 17.5254423054545576   F   F   F
 33.1123694470376364 19.1060954656714834 17.5254423054545576   F   F   F
 48.3297052856376439  6.8882114334714828 17.5254423054545576   F   F   F
 56.7094933591230088 22.1631267007757060 13.7484707469786436   F   F   F
 64.9626497459230166 46.5988947651757002 13.7484707469786436   F   F   F
 52.0667070579230113 46.5988947651757002 13.7484707469786436   F   F   F
 20.0849543918230111 28.2720687168757081 13.7484707469786436   F   F   F
 26.5329257358230102 28.2720687168757081 13.7484707469786436   F   F   F
 32.9808970798230163 28.2720687168757081 13.7484707469786436   F   F   F
 39.4288684238230118 28.2720687168757081 13.7484707469786436   F   F   F
 45.8768397678230144 28.2720687168757081 13.7484707469786436   F   F   F
 52.3248111118230170 28.2720687168757081 13.7484707469786436   F   F   F
 58.7727824558230125 28.2720687168757081 13.7484707469786436   F   F   F
 15.7002721445230140 34.3810107329757102 13.7484707469786436   F   F   F
 22.1482434885230113 34.3810107329757102 13.7484707469786436   F   F   F
 28.5962148325230103 34.3810107329757102 13.7484707469786436   F   F   F
 35.0441861765230129 34.3810107329757102 13.7484707469786436   F   F   F
 41.4921575205230155 34.3810107329757102 13.7484707469786436   F   F   F
 47.9401288645230110 34.3810107329757102 13.7484707469786436   F   F   F
 58.5146784019230140 46.5988947651757002 13.7484707469786436   F   F   F
 54.3881002085230136 34.3810107329757102 13.7484707469786436   F   F   F
 17.7635612412230124 40.4899527490757052 13.7484707469786436   F   F   F
 24.2115325852230114 40.4899527490757052 13.7484707469786436   F   F   F
 30.6595039292230105 40.4899527490757052 13.7484707469786436   F   F   F
 37.1074752732230237 40.4899527490757052 13.7484707469786436   F   F   F
 43.5554466172230121 40.4899527490757052 13.7484707469786436   F   F   F
 50.0034179612230147 40.4899527490757052 13.7484707469786436   F   F   F
 56.4513893052230173 40.4899527490757052 13.7484707469786436   F   F   F
 62.8993606492230128 40.4899527490757052 13.7484707469786436   F   F   F
 19.8268503379230125 46.5988947651757002 13.7484707469786436   F   F   F
 26.2748216819230116 46.5988947651757002 13.7484707469786436   F   F   F
 32.7227930259230106 46.5988947651757002 13.7484707469786436   F   F   F
 39.1707643699230132 46.5988947651757002 13.7484707469786436   F   F   F
 45.6187357139230159 46.5988947651757002 13.7484707469786436   F   F   F
 60.8360715525230091 34.3810107329757102 13.7484707469786436   F   F   F
 55.3912281354513070 18.9106256598814575 23.1924824145040205   T   T   T
 48.6589031841792448 19.2986609141494192 23.0935858091988919   T   T   T
 43.8988926745138954 18.9677536292751689 22.5337994191744357   T   T   T
  2.0586277657661181  3.9109431399005987 19.4950086765835486   T   T   T
  8.5438072312125808  3.7809676294393273 19.4001422833238024   T   T   T
 14.9030920907656004  3.9141024243953955 19.5592754995006821   T   T   T
 21.6693581149576282  3.8058975921949822 19.2893897394607876   T   T   T
 28.0092797952542867  3.7488688035752284 19.3997757441456145   T   T   T
 34.4485083334600688  3.8454567425946133 19.3206314115633546   T   T   T
 40.6946799676031858  3.9065627631829245 19.5438380764476953   T   T   T
 47.3494063748791660  3.7887117444636571 19.3636471592703536   T   T   T
  4.2474358349193659 10.0269505805497570 19.3420901547099362   T   T   T
 10.6388353293976525  9.9637769621821271 19.3798397662531556   T   T   T
 17.1651006446284846  9.9540485449173364 19.3564554785626832   T   T   T
 23.6499740336643747  9.8877900458664261 19.3750263783179157   T   T   T
 29.4650547808230030  9.8493742786112701 19.6867098208191038   T   T   T
 63.9334253443985290 43.5418635300714740 15.6670670430993493   F   F   F
 36.1748356616627049  9.9718791561886970 19.6310084932123239   T   T   T
 49.4134681341879585  9.9557558412828797 19.3301172370137664   T   T   T
  6.3271267283056813 16.0821401653229259 19.3406163075431721   T   T   T
 12.7259003516119282 16.0092844962487924 19.3955349031374169   T   T   T
 19.2208370891666576 16.0160100183303626 19.3769282707749575   T   T   T
 25.6754025632011000 16.0411556700515661 19.3619637637890172   T   T   T
 32.0762351058448729 16.0514832008312816 19.4403266793749125   T   T   T
 38.5239693102667431 16.0122348274893795 19.3908039210890379   T   T   T
 44.9414204293053885 16.0033482851454814 19.4245456631434479   T   T   T
 51.3666532651560601 16.0722594278446600 19.4177361056207545   T   T   T
  8.2982623234307162 22.2392550238897329 19.3649639153561672   T   T   T
 14.8113842044074548 22.1897169096083893 19.3757147565067243   T   T   T
 21.2900126835917760 22.1314657290243879 19.3404840699395777   T   T   T
 27.6826424801593198 22.1887071130573013 19.3491614174729776   T   T   T
 42.9742629738960105  9.9036636007861212 19.3541546078767794   T   T   T
 34.1531763706912983 22.1034251807082356 19.4037559475757249   T   T   T
 57.4854540003985335 43.5418635300714740 15.6670670430993493   F   F   F
 44.5895113123985283 43.5418635300714740 15.6670670430993493   F   F   F
 12.6077586462985316 25.2150374817714820 15.6670670430993493   F   F   F
 19.0557299902985307 25.2150374817714820 15.6670670430993493   F   F   F
 25.5037013342985261 25.2150374817714820 15.6670670430993493   F   F   F
 31.9516726782985288 25.2150374817714820 15.6670670430993493   F   F   F
 38.3996440222985385 25.2150374817714820 15.6670670430993493   F   F   F
 44.8476153662985269 25.2150374817714820 15.6670670430993493   F   F   F
 51.2955867102985295 25.2150374817714820 15.6670670430993493   F   F   F
 57.7435580542985250 25.2150374817714820 15.6670670430993493   F   F   F
 14.6710477429985318 31.3239794978714841 15.6670670430993493   F   F   F
 21.1190190869985308 31.3239794978714841 15.6670670430993493   F   F   F
 27.5669904309985263 31.3239794978714841 15.6670670430993493   F   F   F
 34.0149617749985325 31.3239794978714841 15.6670670430993493   F   F   F
 40.4629331189985209 31.3239794978714841 15.6670670430993493   F   F   F
 51.0374826563985238 43.5418635300714740 15.6670670430993493   F   F   F
 46.9109044629985306 31.3239794978714841 15.6670670430993493   F   F   F
 59.8068471509985287 31.3239794978714841 15.6670670430993493   F   F   F
 16.7343368396985319 37.4329215139714861 15.6670670430993493   F   F   F
 23.1823081836985310 37.4329215139714861 15.6670670430993493   F   F   F
 29.6302795276985265 37.4329215139714861 15.6670670430993493   F   F   F
 36.0782508716985291 37.4329215139714861 15.6670670430993493   F   F   F
 42.5262222156985388 37.4329215139714861 15.6670670430993493   F   F   F
 48.9741935596985272 37.4329215139714861 15.6670670430993493   F   F   F
 55.4221649036985298 37.4329215139714861 15.6670670430993493   F   F   F
 61.8701362476985253 37.4329215139714861 15.6670670430993493   F   F   F
 18.7976259363985285 43.5418635300714740 15.6670670430993493   F   F   F
 25.2455972803985276 43.5418635300714740 15.6670670430993493   F   F   F
 31.6935686243985266 43.5418635300714740 15.6670670430993493   F   F   F
 38.1415399683985328 43.5418635300714740 15.6670670430993493   F   F   F
 53.3588758069985332 31.3239794978714841 15.6670670430993493   F   F   F
 40.5899511751915085 22.2001190878386936 19.3949628318150289   T   T   T
 47.1066177186197734 22.1205615483538764 19.3347252397465468   T   T   T
 53.4503628523567897 22.1868892641634261 19.3696789207127225   T   T   T
  9.8565353148218300  1.1042358675178323 23.0790849885183356   T   T   T
 16.6358275022421438  1.4578369211288966 22.9185766491814249   T   T   T
 23.2262485066188944  0.6043829816894831 23.2529191334143377   T   T   T
 30.0827034859512246  0.5890688119911008 23.2596781240385404   T   T   T
 34.2790031532093522  1.5661219305081731 22.3450738506630309   T   T   T
 44.1853046202884201  0.5502505384014695 22.4234698280120277   T   T   T
 48.8927393124919121  0.6120148769965708 23.3154225369959427   T   T   T
  5.8962557996242930  7.0586296495524898 23.2585965840381732   T   T   T
 12.6326890734827906  6.4799121858573621 23.0095772523385484   T   T   T
 18.7941254121246359  7.1254957069660714 23.3927910090929458   T   T   T
 26.7543175052048241  6.7546747479631390 22.6960717656984130   T   T   T
 30.0515628746679262  7.3516205579456964 22.2905593217765770   T   T   T
 38.3722839531125643  6.8353159997944966 22.8053239639049181   T   T   T
  5.4834845628539197  0.6191674318394269 22.4793054526366767   T   T   T
 46.3039994078482522  6.7778992429759493 22.6062160078258216   T   T   T
  8.1950201461323147 13.1637102933063073 23.2583289569196587   T   T   T
 14.0067147995081029 13.2990612210227219 22.8115869082173255   T   T   T
 20.8559232520644073 13.0755472673665345 23.0693931654698865   T   T   T
 28.1102898246723498 12.8331785743211348 22.9575098253630330   T   T   T
 33.9090138524443034 12.8645137461641443 22.8796746590829372   T   T   T
 40.0397020815726563 13.3530178952432124 23.1454668718551844   T   T   T
 46.5371314650399057 12.9622659233717368 23.3260922685706014   T   T   T
 54.3141882944728849 13.0603096005249100 22.5410682034140315   T   T   T
  9.8284033396761501 19.3675726171665232 23.1561272129069664   T   T   T
 16.3923031725001103 19.1054706399457821 23.1099930266559035   T   T   T
 23.0651709291977269 19.2473807054621169 23.0041900023614190   T   T   T
 29.2858451256145216 18.9974666478717928 22.9437095969482172   T   T   T
 35.8883564203598908 18.9604119327361573 23.1035302793297568   T   T   T
 51.3989782374524893  6.5231559680266802 23.0190620864703668   T   T   T
 61.7452203012597138 46.5963643650738817 19.3673848092998639   T   T   T
 55.3115034515818706 46.6228910675088670 19.3673290694419791   T   T   T
 48.9077683097852827 46.4229254679053227 19.4048585130910709   T   T   T
 10.4477309958514208 28.2495964094358207 19.3450643035368053   T   T   T
 16.8643935681999864 28.3080868484677808 19.3443196613405917   T   T   T
 23.3495331140477553 28.2819047905753855 19.3347601212510440   T   T   T
 29.7597729925336090 28.1660238465248192 19.4135037790162670   T   T   T
 36.2576903929488026 28.2629952735321233 19.3593405642607266   T   T   T
 42.6081814154964391 28.2901611359219736 19.3872809327853908   T   T   T
 49.1134652856774707 28.3570723858521099 19.3249818828400350   T   T   T
 55.5439724122228782 28.2555490267211233 19.4112461022641298   T   T   T
 12.4569308014731490 34.4304151012658721 19.3329331215481481   T   T   T
 18.8646047395563166 34.4221543205565652 19.4115841558341735   T   T   T
 25.3808351308654601 34.3717330214596117 19.3849336513265911   T   T   T
 31.8389534523806645 34.4069486724492535 19.3599988587523697   T   T   T
 38.2660066936672294 34.3634353417803027 19.3765354372325866   T   T   T
 44.6959990595437233 34.3424942927695014 19.3872879065088739   T   T   T
 51.2279104856166398 34.3763657653837029 19.3477610481608089   T   T   T
 57.5809303391728520 34.3747067239689557 19.3860205188806205   T   T   T
 14.4681288950603761 40.4793248992547632 19.4147877943105556   T   T   T
 21.0837245404471574 40.6037428658173241 19.2292144907480740   T   T   T
 27.4922725738515936 40.4793623075845801 19.3789621563969554   T   T   T
 33.9065163547849053 40.5206473544792587 19.3645894084911809   T   T   T
 40.3345882610349307 40.5060203598098454 19.4460863723467696   T   T   T
 46.7448163527838645 40.4178169245019205 19.4296130915506389   T   T   T
 53.1905392552245218 40.5641629120153411 19.3583752371467739   T   T   T
 59.5691454757041328 40.5413220380631429 19.4128638357058421   T   T   T
 16.6644001400592323 46.5499101670371118 19.3500635694970526   T   T   T
 23.0375145529013885 46.6040703956234807 19.3794451721437007   T   T   T
 29.4909386457526175 46.6290044897637728 19.3292355424815483   T   T   T
 35.9568084858082244 46.6350566056273976 19.3826339773125014   T   T   T
 42.4302818974310938 46.4781686949321937 19.4316984225790250   T   T   T
 46.0083121350376416 19.1060954656714834 17.5254423054545576   F   F   F
 22.5092956362257546  6.9142530224699872 13.7457805260363646   F   F   F
