Cu Fe O  S 
 1.0000000000000000
    51.5837707519999995    0.0000000000000000    0.0000000000000000
    16.5063127736000013   48.8715361288000025    0.0000000000000000
     0.0000000000000000    0.0000000000000000   35.1925086975000028
 Cu  Fe  O   S  
 512 456  96 1024
Selective dynamics
Cartesian
 19.2705381650390954  9.1958456722158477 15.6476701992355736   F   F   F
 27.4745873654159745 24.5178306367106806 19.2850982340338817   T   T   T
 34.1349992197634080 24.4022012028137496 19.3720031784327524   T   T   T
 40.4823162139475272 24.5163172056336229 19.3772005863893604   T   T   T
 47.0751153535382798 24.4268482636283011 19.4283565985197839   T   T   T
 53.4406303141123118 24.4203949525032264 19.3119499955472804   T   T   T
 10.3869393664092744 30.6147428323795907 19.3901023125590335   T   T   T
 16.8228686573462198 30.4879316638135478 19.2892017542345258   T   T   T
 23.1566919774171076 30.5735446135338833 19.3470260418515245   T   T   T
 29.7605183147784764 30.6403147115071093 19.4277463986495889   T   T   T
 36.1930431348929602 30.5335874518295718 19.3834275109273122   T   T   T
 42.6925333746041815 30.5798562292514546 19.4329620825462968   T   T   T
 49.1954587462305568 30.5880885302943888 19.4758147114191793   T   T   T
 55.4973810990695284 30.4494083938424929 19.2646025833492622   T   T   T
 21.2119173116444237 24.4045403988010072 19.3126980311971046   T   T   T
 12.4734992734873860 36.6377418992232435 19.3807179758903523   T   T   T
 25.3431820060319595 36.7103817420212906 19.4454400861314518   T   T   T
 31.8024439128213814 36.6903632999043765 19.3835215166208705   T   T   T
 38.0206245899089197 36.5685174871963241 19.2105380116385795   T   T   T
 44.6441336773718120 36.6332388772087683 19.3538760632874443   T   T   T
 51.1391730777348172 36.6769828399383968 19.4021207313837252   T   T   T
 57.5683562064175547 36.7709741444766536 19.3938022980734246   T   T   T
 14.3188454401205423 42.7767118409731495 19.3151977271355051   T   T   T
 20.9864156365508592 42.7750920149392542 19.4080108151978052   T   T   T
 27.1208127302301349 42.4515801385996880 18.8819085347538795   T   T   T
 33.9435661397096951 42.7615988651257908 19.4491485420307946   T   T   T
 40.2816342103391491 42.6990410382066656 19.3066278527158950   T   T   T
 46.6482948254623579 42.8325042642853973 19.3746525597377683   T   T   T
 53.3148884472516826 42.7420177587703733 19.4270961974445342   T   T   T
 18.9329399458510750 36.7198435838740380 19.4192474801782069   T   T   T
 59.6941861627739527 42.7116607146138421 19.3494006606455287   T   T   T
 14.7643495820837387 24.5307788700993648 19.4163803707385370   T   T   T
 51.4017268338636768 18.2757012155429095 19.3594042714572403   T   T   T
 19.3430300447722381 -0.0102624210723927 19.2856255012443221   T   T   T
 25.7014085210783527  0.0439909301043052 19.2752508421481679   T   T   T
 32.2710424835865126 -0.0689889089137721 19.3285816297868820   T   T   T
 38.6541296258494711  0.0076993509723896 19.2842201758039273   T   T   T
 45.0006346529992101 -0.0973021447633550 19.2390453739597760   T   T   T
  2.1542945125552038  5.9946421201133262 19.3800784449591958   T   T   T
  8.5837205667690633  6.1133462290948639 19.4016159318359307   T   T   T
 15.0111398808828742  6.1290728727312160 19.3746200782355196   T   T   T
 21.4021482094704965  6.1376755192280861 19.3744633650026223   T   T   T
 27.8344662781220613  6.0584116860756030 19.3098802207052316   T   T   T
 34.4687775796006690  6.1191601843238859 19.4247957578151293   T   T   T
 40.7678801894150808  6.1081586357454576 19.2919067935760324   T   T   T
 47.1692069921135655  6.2684372899072720 19.3855598220579104   T   T   T
  8.1921290731079406 24.4964234471734272 19.3624057822355446   T   T   T
  4.2590590830457442 12.2520479573077257 19.4376268195537705   T   T   T
 17.0286888896841795 12.1737308334815832 19.3146047354300876   T   T   T
 23.5288982563734876 12.2546049141348838 19.3355188459547520   T   T   T
 30.1625501819067949 12.1767998152570041 19.4349148618838754   T   T   T
 36.2577573259525963 12.1859129009827196 19.1976955738528154   T   T   T
 42.7950610265737552 12.2223651743464004 19.3896943074784502   T   T   T
 49.3624796441180607 12.2331426270213068 19.4074803661691142   T   T   T
  6.0930368185832124 18.2825475961971655 19.2172870783504770   T   T   T
 12.6276436183651963 18.3651298463405048 19.3441854895345351   T   T   T
 19.0757098751770826 18.2930660358906358 19.3131805656691888   T   T   T
 25.6691700047208187 18.2798147581997483 19.4069938950785037   T   T   T
 31.9413669744124888 18.2694014797381605 19.2804501544683049   T   T   T
 38.5265199088667316 18.3291916552548066 19.3763692377376238   T   T   T
 44.9274823954226292 18.2647960343563192 19.3389451984693466   T   T   T
 10.6596102498961116 12.2398037194503662 19.3854896008749940   T   T   T
 12.9526347161992685 -0.0329607043593800 19.3176901306983844   T   T   T
  2.8743101056546645  3.3137446067000131 21.6172296324165139   T   T   T
 17.1910867920243113  2.5577252493399785 22.4148223063537451   T   T   T
 31.4760780504257234 27.4756333110627970 22.4025958907939327   T   T   T
 38.4390412057651290 27.2914470122813704 22.6492118188697482   T   T   T
 44.2936154087639906 27.5340148978521277 22.3863062733391303   T   T   T
 51.2745303567386372 27.0031123285832315 22.3367261203424121   T   T   T
 57.7189016391365115 27.1762424976580022 22.7298547290334803   T   T   T
 14.7003650690552181 33.0838449894297639 22.3918615975357369   T   T   T
 20.5847817958623658 33.5381748869994993 22.3922731711453906   T   T   T
 27.2976412223325866 33.2661138343324723 22.5153278080949200   T   T   T
 33.7954374581910386 33.5325765660548853 22.5027857190368046   T   T   T
 40.2806859635868832 33.1606931193899115 22.5084378807574268   T   T   T
 46.6176138700862879 33.5078044973813078 22.5662532637114701   T   T   T
 53.3255926864559839 33.0177465113013469 22.3635609104626347   T   T   T
 59.2668402529832434 33.5100048492571219 22.4240404335592736   T   T   T
 25.1431769506814540 27.2128384869482360 22.3810832674317268   T   T   T
 16.5987018642333446 39.3327045197499174 22.5326072566267008   T   T   T
 29.0078012839044526 39.7120596006972164 22.3923633324997198   T   T   T
 35.7776925072648524 39.7207738434570174 22.4756263356290908   T   T   T
 40.9569441972916906 39.8212028602376904 21.6317931856858436   T   T   T
 48.5497212096300004 39.5168478474495046 22.4094704307085131   T   T   T
 55.3443892051851876 39.5151436392189623 22.6094155381116160   T   T   T
 61.5192802952617299 39.0742538924472029 22.0524458851983596   T   T   T
 18.5040886183961852 45.5442067188455013 22.5561265228008523   T   T   T
 24.9952378508004927 45.5730524716341492 22.4005446025589841   T   T   T
 28.3538195184497148 45.5762940865867989 20.8877700333701810   T   T   T
 38.1507421194174867 45.3901114006790252 22.3749811356947994   T   T   T
 44.0395208955498347 45.8395898967177402 22.3699524469696591   T   T   T
 51.0187079019614487 45.4425500279238932 22.5260863733961720   T   T   T
 57.3654181900535178 45.2232104391216154 22.4298587226410646   T   T   T
 22.9989264523280532 39.5448889625515676 22.2897528377083738   T   T   T
 10.7787078271493151  3.0729714751580737 22.4095239823177259   T   T   T
 18.9246588608807897 26.9454420828994614 22.4021715893470450   T   T   T
 55.1453110000559263 21.2290841367074989 22.4962738814217680   T   T   T
 23.1485577844517181  2.9972178058555694 22.4215549567989321   T   T   T
 29.6578752143679729  2.9525329161422942 22.4151431851661869   T   T   T
 35.1682718624117214  3.3721202477298071 21.5719936510079044   T   T   T
 41.3545038401245080  2.9376430645598717 21.5334279368552579   T   T   T
 49.0363242593536910  2.5573037155436036 21.1525627298994898   T   T   T
  6.2809212803205279  9.0301786749494894 22.3700581532720300   T   T   T
 12.4902429915551672  9.0570203452730347 22.4900019216042821   T   T   T
 18.3957895584706925  9.4001380606567952 22.5231754908595896   T   T   T
 25.4200219414523083  9.0524490086692673 22.3488117082367701   T   T   T
 31.9154041529711243  8.8587551925300421 22.5086704508342486   T   T   T
 38.5051646433689214  8.5618887564331931 22.4035912883307411   T   T   T
 44.8426688267238589  8.8774330184848509 22.4287432008228258   T   T   T
 51.4397457027984046  8.4515837065111672 22.3251950592341153   T   T   T
 12.4431026551450135 27.1987977764771927 22.3955448229090273   T   T   T
  8.0190583511189413 15.2414462661443331 22.5468412566778404   T   T   T
 21.0240332292772152 15.1725464169485829 22.4416793343882297   T   T   T
 27.8623897026374863 14.7011499491407935 22.4618321871757125   T   T   T
 34.2573819358865919 14.8086320571620362 22.2136291379455741   T   T   T
 40.0441316087677848 15.3861069556609635 22.3232495709038545   T   T   T
 47.0083597440987830 15.2511925932388230 22.7050694900568431   T   T   T
 53.5388196221563462 14.6668694647331250 22.3449804748885938   T   T   T
  7.2886201392154444 21.3617050889532791 21.2855809482300025   T   T   T
 16.4645437635890239 21.3500552381711941 22.4579093593128718   T   T   T
 22.9237019030411808 21.0588359987830245 22.5604377113096923   T   T   T
 30.0304576185552854 21.3152670027460012 22.2818825248106300   T   T   T
 36.1894138838488857 20.7364487514865239 22.5018423416526048   T   T   T
 42.3329464015803296 21.2299482127799202 22.5037935777845988   T   T   T
 48.9430853270644945 21.1226290568846586 22.4850400549158991   T   T   T
 14.3272703737102916 15.4246444333556632 22.5311860898844145   T   T   T
 63.5222526100529166 45.9457106417042525 22.4569723763451492   T   T   T
  6.5237591280104859 -0.0198849079152564 19.3979309154651887   T   T   T
 63.8901294652391059 45.8494977688158514 15.6476701992355736   F   F   F
 36.5048461035414036 12.3125145985003890 11.6694502797732387   F   F   F
 30.0568747595413974 12.3125145985003890 11.6694502797732387   F   F   F
 23.6089034155414019 12.3125145985003890 11.6694502797732387   F   F   F
 17.1609320715414029 12.3125145985003890 11.6694502797732387   F   F   F
 10.7129607275414003 12.3125145985003890 11.6694502797732387   F   F   F
  4.2649893835414021 12.3125145985003890 11.6694502797732387   F   F   F
 47.3374996948413980  6.2035725824003869 11.6694502797732387   F   F   F
 40.8895283508413954  6.2035725824003869 11.6694502797732387   F   F   F
 34.4415570068413999  6.2035725824003869 11.6694502797732387   F   F   F
 27.9935856628413973  6.2035725824003869 11.6694502797732387   F   F   F
 21.5456143188414018  6.2035725824003869 11.6694502797732387   F   F   F
 15.0976429748414009  6.2035725824003869 11.6694502797732387   F   F   F
  8.6496716308414001  6.2035725824003869 11.6694502797732387   F   F   F
 42.9528174475413991 12.3125145985003890 11.6694502797732387   F   F   F
  2.2017002868414011  6.2035725824003869 11.6694502797732387   F   F   F
 38.8262392541413988  0.0946305663003873 11.6694502797732387   F   F   F
 32.3782679101414033  0.0946305663003873 11.6694502797732387   F   F   F
 25.9302965661413971  0.0946305663003873 11.6694502797732387   F   F   F
 19.4823252221414016  0.0946305663003873 11.6694502797732387   F   F   F
 13.0343538781414008  0.0946305663003873 11.6694502797732387   F   F   F
  6.5863825341414000  0.0946305663003873 11.6694502797732387   F   F   F
  0.1384111901414013  0.0946305663003873 11.6694502797732387   F   F   F
 14.5814348670414002 42.8572246790003817 11.6694502797732387   F   F   F
 21.0294062110414011 42.8572246790003817 11.6694502797732387   F   F   F
 27.4773775550414037 42.8572246790003817 11.6694502797732387   F   F   F
 33.9253488990414027 42.8572246790003817 11.6694502797732387   F   F   F
 40.3733202430413982 42.8572246790003817 11.6694502797732387   F   F   F
 46.8212915870414008 42.8572246790003817 11.6694502797732387   F   F   F
 45.2742105981414014  0.0946305663003873 11.6694502797732387   F   F   F
 53.2692629310413963 42.8572246790003817 11.6694502797732387   F   F   F
 49.4007887915414017 12.3125145985003890 11.6694502797732387   F   F   F
 12.7762498242414004 18.4214566146003875 11.6694502797732387   F   F   F
 44.7580024903414042 36.7482826629003867 11.6694502797732387   F   F   F
 38.3100311463414016 36.7482826629003867 11.6694502797732387   F   F   F
 31.8620598023414026 36.7482826629003867 11.6694502797732387   F   F   F
 25.4140884583414035 36.7482826629003867 11.6694502797732387   F   F   F
 18.9661171143414009 36.7482826629003867 11.6694502797732387   F   F   F
 12.5181457703414001 36.7482826629003867 11.6694502797732387   F   F   F
 55.5906560816413986 30.6393406468003846 11.6694502797732387   F   F   F
 49.1426847376413960 30.6393406468003846 11.6694502797732387   F   F   F
 42.6947133936414005 30.6393406468003846 11.6694502797732387   F   F   F
 36.2467420496413979 30.6393406468003846 11.6694502797732387   F   F   F
 29.7987707056414024 30.6393406468003846 11.6694502797732387   F   F   F
 23.3507993616414034 30.6393406468003846 11.6694502797732387   F   F   F
 16.9028280176414007 30.6393406468003846 11.6694502797732387   F   F   F
  6.3282784802414023 18.4214566146003875 11.6694502797732387   F   F   F
 10.4548566736413999 30.6393406468003846 11.6694502797732387   F   F   F
 47.0793956409413994 24.5303986307003896 11.6694502797732387   F   F   F
 40.6314242969414039 24.5303986307003896 11.6694502797732387   F   F   F
 34.1834529529414013 24.5303986307003896 11.6694502797732387   F   F   F
 27.7354816089414022 24.5303986307003896 11.6694502797732387   F   F   F
 21.2875102649414032 24.5303986307003896 11.6694502797732387   F   F   F
 14.8395389209414006 24.5303986307003896 11.6694502797732387   F   F   F
  8.3915675769414015 24.5303986307003896 11.6694502797732387   F   F   F
 51.4640778882413983 18.4214566146003875 11.6694502797732387   F   F   F
 45.0161065442413957 18.4214566146003875 11.6694502797732387   F   F   F
 38.5681352002414002 18.4214566146003875 11.6694502797732387   F   F   F
 32.1201638562413976 18.4214566146003875 11.6694502797732387   F   F   F
 25.6721925122414021 18.4214566146003875 11.6694502797732387   F   F   F
 19.2242211682414030 18.4214566146003875 11.6694502797732387   F   F   F
 53.5273669849414091 24.5303986307003896 11.6694502797732387   F   F   F
 -0.0951951099245668  0.0480241786475629 19.2753665035893214   T   T   T
 59.7172342750413989 42.8572246790003817 11.6694502797732387   F   F   F
 10.7592777243390945  3.0869036561158465 15.6476701992355736   F   F   F
 31.9083767991390950 27.5226717205158486 15.6476701992355736   F   F   F
 38.3563481431391011 27.5226717205158486 15.6476701992355736   F   F   F
 44.8043194871390966 27.5226717205158486 15.6476701992355736   F   F   F
 51.2522908311390992 27.5226717205158486 15.6476701992355736   F   F   F
 57.7002621751390947 27.5226717205158486 15.6476701992355736   F   F   F
 14.6277518638390944 33.6316137366158472 15.6476701992355736   F   F   F
 21.0757232078390935 33.6316137366158472 15.6476701992355736   F   F   F
 27.5236945518390961 33.6316137366158472 15.6476701992355736   F   F   F
 33.9716658958390951 33.6316137366158472 15.6476701992355736   F   F   F
 40.4196372398390977 33.6316137366158472 15.6476701992355736   F   F   F
 46.8676085838391003 33.6316137366158472 15.6476701992355736   F   F   F
 53.3155799278391029 33.6316137366158472 15.6476701992355736   F   F   F
 59.7635512718390984 33.6316137366158472 15.6476701992355736   F   F   F
 25.4604054551390959 27.5226717205158486 15.6476701992355736   F   F   F
 16.6910409605390946 39.7405557527158422 15.6476701992355736   F   F   F
 29.5869836485390962 39.7405557527158422 15.6476701992355736   F   F   F
 36.0349549925390988 39.7405557527158422 15.6476701992355736   F   F   F
 42.4829263365391014 39.7405557527158422 15.6476701992355736   F   F   F
 48.9308976805390969 39.7405557527158422 15.6476701992355736   F   F   F
 55.3788690245390995 39.7405557527158422 15.6476701992355736   F   F   F
 61.8268403685390950 39.7405557527158422 15.6476701992355736   F   F   F
 18.7543300572390947 45.8494977688158514 15.6476701992355736   F   F   F
 25.2023014012390973 45.8494977688158514 15.6476701992355736   F   F   F
 31.6502727452390964 45.8494977688158514 15.6476701992355736   F   F   F
 38.0982440892390954 45.8494977688158514 15.6476701992355736   F   F   F
 44.5462154332390980 45.8494977688158514 15.6476701992355736   F   F   F
 50.9941867772391006 45.8494977688158514 15.6476701992355736   F   F   F
 57.4421581212391104 45.8494977688158514 15.6476701992355736   F   F   F
 23.1390123045390936 39.7405557527158422 15.6476701992355736   F   F   F
  4.3113063803390945  3.0869036561158465 15.6476701992355736   F   F   F
 19.0124341111390969 27.5226717205158486 15.6476701992355736   F   F   F
 55.6369730784390839 21.4137297044158466 15.6476701992355736   F   F   F
 17.2072490683390953  3.0869036561158465 15.6476701992355736   F   F   F
 23.6552204123390943  3.0869036561158465 15.6476701992355736   F   F   F
 30.1031917563390969  3.0869036561158465 15.6476701992355736   F   F   F
 36.5511631003390960  3.0869036561158465 15.6476701992355736   F   F   F
 42.9991344443390986  3.0869036561158465 15.6476701992355736   F   F   F
 49.4471057883390941  3.0869036561158465 15.6476701992355736   F   F   F
  6.3745954770390947  9.1958456722158477 15.6476701992355736   F   F   F
 12.8225668210390946  9.1958456722158477 15.6476701992355736   F   F   F
 25.7185095090390945  9.1958456722158477 15.6476701992355736   F   F   F
 32.1664808530390971  9.1958456722158477 15.6476701992355736   F   F   F
 38.6144521970390997  9.1958456722158477 15.6476701992355736   F   F   F
 45.0624235410391023  9.1958456722158477 15.6476701992355736   F   F   F
 51.5103948850390978  9.1958456722158477 15.6476701992355736   F   F   F
 12.5644627671390960 27.5226717205158486 15.6476701992355736   F   F   F
  8.4378845737390940 15.3047876883158462 15.6476701992355736   F   F   F
 21.3338272617390956 15.3047876883158462 15.6476701992355736   F   F   F
 27.7817986057390947 15.3047876883158462 15.6476701992355736   F   F   F
 34.2297699497390937 15.3047876883158462 15.6476701992355736   F   F   F
 40.6777412937390963 15.3047876883158462 15.6476701992355736   F   F   F
 47.1257126377390989 15.3047876883158462 15.6476701992355736   F   F   F
 53.5736839817390944 15.3047876883158462 15.6476701992355736   F   F   F
 10.5011736704390941 21.4137297044158466 15.6476701992355736   F   F   F
 16.9491450144390932 21.4137297044158466 15.6476701992355736   F   F   F
 23.3971163584390958 21.4137297044158466 15.6476701992355736   F   F   F
 29.8450877024390948 21.4137297044158466 15.6476701992355736   F   F   F
 36.2930590464390974 21.4137297044158466 15.6476701992355736   F   F   F
 42.7410303904390929 21.4137297044158466 15.6476701992355736   F   F   F
 49.1890017344390884 21.4137297044158466 15.6476701992355736   F   F   F
 14.8858559177390948 15.3047876883158462 15.6476701992355736   F   F   F
  3.2919071389349108  0.0462247514751413 13.7357066000366093   F   F   F
  9.7398784829349125  0.0462247514751413 13.7357066000366093   F   F   F
 16.1878498269349116  0.0462247514751413 13.7357066000366093   F   F   F
 37.1142555173967637 24.4216228010653893 21.3036258987181348   T   T   T
 43.5166551926817391 24.5698717014048569 21.1055651482692888   T   T   T
 50.6277329283640540 24.5303578914943792 21.2709516218933068   T   T   T
 56.2207312321226311 24.4181515676265697 21.3534296844949694   T   T   T
 14.0916321223735110 30.5610180430715630 21.3181819083317201   T   T   T
 19.6949568966408286 30.7778398486265132 21.3342306711570942   T   T   T
 26.5915276149201460 30.6357360958943907 21.3228999371650545   T   T   T
 32.9226166641165463 30.6147548668261855 21.2639567536947105   T   T   T
 39.3835166971560753 30.7017844988714970 21.3119869800211319   T   T   T
 45.9208290678940969 30.6339036493447061 21.2917198224039375   T   T   T
 52.5042548135547236 30.6843794890670551 21.2597074202514058   T   T   T
 58.2947607982427982 30.5789669475863128 21.2176243931800173   T   T   T
 15.7620846684143121 36.8723330019674407 21.3687232800649412   T   T   T
 30.9416672256377936 24.9312053513676801 21.2326437645971531   T   T   T
 22.1508521602538231 36.7269812839459675 21.1460913738826335   T   T   T
 34.8042717678035984 36.9975199807045030 21.0267552383631049   T   T   T
 41.0068277018190699 36.6509527871102065 21.0498587513090101   T   T   T
 47.9508119943005511 36.7523618062902528 21.1929051676761695   T   T   T
 54.2586529088519214 36.7802831430008652 21.2470919251177577   T   T   T
 60.7887003520310074 36.5315240892383244 21.1827650375568339   T   T   T
 17.7587840451402670 42.8222384477378739 21.2107917363427951   T   T   T
 24.1690651852143930 42.8562136553737574 21.2839747156381840   T   T   T
 30.3037628422918885 42.8521259196425106 20.8909267467511945   T   T   T
 37.3994929455704934 42.9542073762103698 21.3276152075678525   T   T   T
 42.9668205785466029 42.8353070890559238 21.1708332747318195   T   T   T
 50.1185000603190360 42.6613966351825553 21.2208783686596369   T   T   T
 56.5882453662287688 42.9251734984568358 21.2491613801326515   T   T   T
 62.4732978985174583 42.8637579481356639 21.1723465734831535   T   T   T
 28.8990674699687098 36.6916608893400209 21.3848866900408510   T   T   T
  7.2066494316450838  2.8100591227635059 10.5076069091843713   F   F   F
 23.9147722827361591 24.3608864468270738 21.2953311226444413   T   T   T
 11.5072083485058343 24.5201027850644238 21.1200082818144423   T   T   T
 28.9981815128611906  0.0127792219757240 21.1670729827096515   T   T   T
 35.3658460352666211  0.0297533981893818 21.1058487909258652   T   T   T
 41.6673518250309698  0.1076414326374752 21.1906476069543537   T   T   T
 48.2048844647426407  0.1190704337800146 21.0329493941836674   T   T   T
  5.4431446575626090  6.0853011488502213 21.1269981906298554   T   T   T
 11.7587508546168085  6.4610696515713837 21.2982620760579948   T   T   T
 17.7447740268721965  6.3174743822540860 21.0748158349399262   T   T   T
 24.8721419838953395  6.1689142020346885 21.1771537955242799   T   T   T
 31.2716637599172422  6.0305135223284836 21.2475866509788780   T   T   T
 37.7574356679245255  6.2335308106838081 21.2060779456502253   T   T   T
 43.6116208148470363  6.0888193948191205 21.3982067616210543   T   T   T
 50.5468375086931516  6.0021534754507897 21.1984641139569270   T   T   T
  7.5578120914473121 12.4861628608968687 21.3640645668530667   T   T   T
 18.2032973650953700 24.6009035024363207 21.2444026295634885   T   T   T
 13.9005765933996361 12.2275794006525071 21.2922558209416088   T   T   T
 27.1211636650628094 12.1021153397675221 21.2787171411642078   T   T   T
 33.5156438366668823 12.2937875419283884 21.1525596925492856   T   T   T
 39.2155545069843470 12.4088128499311168 21.2772769972185714   T   T   T
 46.1455842032614143 12.2534028831893487 21.2629140267011962   T   T   T
 52.2606581186426169 12.2199788666010729 21.0890942065595652   T   T   T
  9.2552736945859770 18.4154624272360188 21.1292689537885181   T   T   T
 15.8289762981302751 18.5146206697812623 21.2377175482638592   T   T   T
 22.3435864855891424 18.3299178183693527 21.1772227019804440   T   T   T
 29.1324241387786564 18.2775533796130603 21.0830170914186503   T   T   T
 35.9033795738518435 18.2990230021530458 21.4295505703832028   T   T   T
 41.5433777905898864 18.2736207359985627 21.1399943805109807   T   T   T
 48.1553351192332926 18.4648982541620654 21.2278966184646407   T   T   T
 54.7139569988243863 18.3804218231736556 21.4111711820442672   T   T   T
 20.1070918297194474 12.2280499069237631 21.1265338503500573   T   T   T
 21.9801875404911549  0.1405009281647179 21.2235528741856676   T   T   T
 13.6546207756450855  2.8100591227635059 10.5076069091843713   F   F   F
 26.5505634636450836  2.8100591227635059 10.5076069091843713   F   F   F
 41.2516911944450868 27.2458271871635063 10.5076069091843713   F   F   F
 47.6996625384450823 27.2458271871635063 10.5076069091843713   F   F   F
 54.1476338824450920 27.2458271871635063 10.5076069091843713   F   F   F
 60.5956052264450875 27.2458271871635063 10.5076069091843713   F   F   F
 17.5230949151450837 33.3547692032635084 10.5076069091843713   F   F   F
 23.9710662591450898 33.3547692032635084 10.5076069091843713   F   F   F
 30.4190376031450889 33.3547692032635084 10.5076069091843713   F   F   F
 36.8670089471450879 33.3547692032635084 10.5076069091843713   F   F   F
 43.3149802911450834 33.3547692032635084 10.5076069091843713   F   F   F
 49.7629516351450789 33.3547692032635084 10.5076069091843713   F   F   F
 56.2109229791450815 33.3547692032635084 10.5076069091843713   F   F   F
 62.6588943231450770 33.3547692032635084 10.5076069091843713   F   F   F
 19.5863840118450803 39.4637112193635033 10.5076069091843713   F   F   F
 34.8037198504450842 27.2458271871635063 10.5076069091843713   F   F   F
 26.0343553558450864 39.4637112193635033 10.5076069091843713   F   F   F
 38.9302980438450845 39.4637112193635033 10.5076069091843713   F   F   F
 45.3782693878450871 39.4637112193635033 10.5076069091843713   F   F   F
 51.8262407318450826 39.4637112193635033 10.5076069091843713   F   F   F
 58.2742120758450852 39.4637112193635033 10.5076069091843713   F   F   F
 64.7221834198450807 39.4637112193635033 10.5076069091843713   F   F   F
 21.6496731085450804 45.5726532354634983 10.5076069091843713   F   F   F
 28.0976444525450866 45.5726532354634983 10.5076069091843713   F   F   F
 34.5456157965450856 45.5726532354634983 10.5076069091843713   F   F   F
 40.9935871405450882 45.5726532354634983 10.5076069091843713   F   F   F
 47.4415584845450837 45.5726532354634983 10.5076069091843713   F   F   F
 53.8895298285450792 45.5726532354634983 10.5076069091843713   F   F   F
 60.3375011725450818 45.5726532354634983 10.5076069091843713   F   F   F
 66.7854725165450844 45.5726532354634983 10.5076069091843713   F   F   F
 32.4823266998450890 39.4637112193635033 10.5076069091843713   F   F   F
 20.1025921196450881  2.8100591227635059 10.5076069091843713   F   F   F
 28.3557485064450887 27.2458271871635063 10.5076069091843713   F   F   F
 15.4598058184450835 27.2458271871635063 10.5076069091843713   F   F   F
 32.9985348076450862  2.8100591227635059 10.5076069091843713   F   F   F
 39.4465061516450817  2.8100591227635059 10.5076069091843713   F   F   F
 45.8944774956450843  2.8100591227635059 10.5076069091843713   F   F   F
 52.3424488396450798  2.8100591227635059 10.5076069091843713   F   F   F
  9.2699385283450830  8.9190011388635053 10.5076069091843713   F   F   F
 15.7179098723450892  8.9190011388635053 10.5076069091843713   F   F   F
 22.1658812163450882  8.9190011388635053 10.5076069091843713   F   F   F
 28.6138525603450837  8.9190011388635053 10.5076069091843713   F   F   F
 35.0618239043450828  8.9190011388635053 10.5076069091843713   F   F   F
 41.5097952483450783  8.9190011388635053 10.5076069091843713   F   F   F
 47.9577665923450809  8.9190011388635053 10.5076069091843713   F   F   F
 54.4057379363450764  8.9190011388635053 10.5076069091843713   F   F   F
 11.3332276250450832 15.0279431549635074 10.5076069091843713   F   F   F
 21.9077771624450897 27.2458271871635063 10.5076069091843713   F   F   F
 17.7811989690450858 15.0279431549635074 10.5076069091843713   F   F   F
 30.6771416570450839 15.0279431549635074 10.5076069091843713   F   F   F
 37.1251130010450865 15.0279431549635074 10.5076069091843713   F   F   F
 43.5730843450450820 15.0279431549635074 10.5076069091843713   F   F   F
 50.0210556890450846 15.0279431549635074 10.5076069091843713   F   F   F
 56.4690270330450801 15.0279431549635074 10.5076069091843713   F   F   F
 13.3965167217450833 21.1368851710635077 10.5076069091843713   F   F   F
 19.8444880657450859 21.1368851710635077 10.5076069091843713   F   F   F
 26.2924594097450885 21.1368851710635077 10.5076069091843713   F   F   F
 32.7404307537450876 21.1368851710635077 10.5076069091843713   F   F   F
 39.1884020977450831 21.1368851710635077 10.5076069091843713   F   F   F
 45.6363734417450786 21.1368851710635077 10.5076069091843713   F   F   F
 52.0843447857450812 21.1368851710635077 10.5076069091843713   F   F   F
 58.5323161297450767 21.1368851710635077 10.5076069091843713   F   F   F
 24.2291703130450884 15.0279431549635074 10.5076069091843713   F   F   F
 16.4756681292732665 -0.0848184327886785 21.2838979431877036   T   T   T
  9.8980892775629794  0.0643617210497317 21.0354944285954666   T   T   T
  2.8661293013971418  0.0163773995600065 21.1331042678357548   T   T   T
 30.8889775577349113 24.4819928158751452 13.7357066000366093   F   F   F
 37.3369489017349068 24.4819928158751452 13.7357066000366093   F   F   F
 43.7849202457349094 24.4819928158751452 13.7357066000366093   F   F   F
 50.2328915897349120 24.4819928158751452 13.7357066000366093   F   F   F
 56.6808629337349146 24.4819928158751452 13.7357066000366093   F   F   F
 13.6083526224349107 30.5909348319751402 13.7357066000366093   F   F   F
 20.0563239664349133 30.5909348319751402 13.7357066000366093   F   F   F
 26.5042953104349124 30.5909348319751402 13.7357066000366093   F   F   F
 32.9522666544349150 30.5909348319751402 13.7357066000366093   F   F   F
 39.4002379984349034 30.5909348319751402 13.7357066000366093   F   F   F
 45.8482093424349060 30.5909348319751402 13.7357066000366093   F   F   F
 52.2961806864349086 30.5909348319751402 13.7357066000366093   F   F   F
 58.7441520304349112 30.5909348319751402 13.7357066000366093   F   F   F
 24.4410062137349122 24.4819928158751452 13.7357066000366093   F   F   F
 15.6716417191349109 36.6998768480751423 13.7357066000366093   F   F   F
 28.5675844071349125 36.6998768480751423 13.7357066000366093   F   F   F
 35.0155557511349116 36.6998768480751423 13.7357066000366093   F   F   F
 41.4635270951349071 36.6998768480751423 13.7357066000366093   F   F   F
 47.9114984391349097 36.6998768480751423 13.7357066000366093   F   F   F
 54.3594697831349052 36.6998768480751423 13.7357066000366093   F   F   F
 60.8074411271349149 36.6998768480751423 13.7357066000366093   F   F   F
 17.7349308158349110 42.8088188641751373 13.7357066000366093   F   F   F
 24.1829021598349136 42.8088188641751373 13.7357066000366093   F   F   F
 30.6308735038349127 42.8088188641751373 13.7357066000366093   F   F   F
 37.0788448478349153 42.8088188641751373 13.7357066000366093   F   F   F
 43.5268161918349037 42.8088188641751373 13.7357066000366093   F   F   F
 49.9747875358349063 42.8088188641751373 13.7357066000366093   F   F   F
 56.4227588798349089 42.8088188641751373 13.7357066000366093   F   F   F
 22.1196130631349135 36.6998768480751423 13.7357066000366093   F   F   F
 62.8707302238349115 42.8088188641751373 13.7357066000366093   F   F   F
 17.9930348697349132 24.4819928158751452 13.7357066000366093   F   F   F
 54.6175738370349109 18.3730507997751431 13.7357066000366093   F   F   F
 22.6358211709349106  0.0462247514751413 13.7357066000366093   F   F   F
 29.0837925149349061  0.0462247514751413 13.7357066000366093   F   F   F
 35.5317638589349087  0.0462247514751413 13.7357066000366093   F   F   F
 41.9797352029349113  0.0462247514751413 13.7357066000366093   F   F   F
 48.4277065469349139  0.0462247514751413 13.7357066000366093   F   F   F
  5.3551962356349110  6.1551667675751425 13.7357066000366093   F   F   F
 11.8031675796349127  6.1551667675751425 13.7357066000366093   F   F   F
 18.2511389236349117  6.1551667675751425 13.7357066000366093   F   F   F
 24.6991102676349108  6.1551667675751425 13.7357066000366093   F   F   F
 31.1470816116349063  6.1551667675751425 13.7357066000366093   F   F   F
 37.5950529556349053  6.1551667675751425 13.7357066000366093   F   F   F
 44.0430242996349079  6.1551667675751425 13.7357066000366093   F   F   F
 50.4909956436349106  6.1551667675751425 13.7357066000366093   F   F   F
 11.5450635257349123 24.4819928158751452 13.7357066000366093   F   F   F
  7.4184853323349111 12.2641087836751410 13.7357066000366093   F   F   F
 20.3144280203349119 12.2641087836751410 13.7357066000366093   F   F   F
 26.7623993643349110 12.2641087836751410 13.7357066000366093   F   F   F
 33.2103707083349065 12.2641087836751410 13.7357066000366093   F   F   F
 39.6583420523349091 12.2641087836751410 13.7357066000366093   F   F   F
 46.1063133963349117 12.2641087836751410 13.7357066000366093   F   F   F
 52.5542847403349143 12.2641087836751410 13.7357066000366093   F   F   F
  9.4817744290349104 18.3730507997751431 13.7357066000366093   F   F   F
 15.9297457730349112 18.3730507997751431 13.7357066000366093   F   F   F
 22.3777171170349121 18.3730507997751431 13.7357066000366093   F   F   F
 28.8256884610349111 18.3730507997751431 13.7357066000366093   F   F   F
 35.2736598050349102 18.3730507997751431 13.7357066000366093   F   F   F
 41.7216311490349057 18.3730507997751431 13.7357066000366093   F   F   F
 48.1696024930349083 18.3730507997751431 13.7357066000366093   F   F   F
 13.8664566763349111 12.2641087836751410 13.7357066000366093   F   F   F
  1.0873205922756009  3.0869036561158465 17.5448402050934327   F   F   F
  7.5352919362756010  3.0869036561158465 17.5448402050934327   F   F   F
 13.9832632802755992  3.0869036561158465 17.5448402050934327   F   F   F
 35.1323623550756068 27.5226717205158486 17.5448402050934327   F   F   F
 41.5803336990756023 27.5226717205158486 17.5448402050934327   F   F   F
 48.0283050430756049 27.5226717205158486 17.5448402050934327   F   F   F
 54.4762763870756004 27.5226717205158486 17.5448402050934327   F   F   F
 11.4037660757756001 33.6316137366158472 17.5448402050934327   F   F   F
 17.8517374197756062 33.6316137366158472 17.5448402050934327   F   F   F
 24.2997087637755982 33.6316137366158472 17.5448402050934327   F   F   F
 30.7476801077756043 33.6316137366158472 17.5448402050934327   F   F   F
 37.1956514517756034 33.6316137366158472 17.5448402050934327   F   F   F
 43.6436227957756060 33.6316137366158472 17.5448402050934327   F   F   F
 50.0915941397756086 33.6316137366158472 17.5448402050934327   F   F   F
 56.5395654837756041 33.6316137366158472 17.5448402050934327   F   F   F
 13.4670551724756002 39.7405557527158422 17.5448402050934327   F   F   F
 28.6843910110756006 27.5226717205158486 17.5448402050934327   F   F   F
 19.9150265164756064 39.7405557527158422 17.5448402050934327   F   F   F
 32.8109692044756045 39.7405557527158422 17.5448402050934327   F   F   F
 39.2589405484756071 39.7405557527158422 17.5448402050934327   F   F   F
 45.7069118924756026 39.7405557527158422 17.5448402050934327   F   F   F
 52.1548832364756052 39.7405557527158422 17.5448402050934327   F   F   F
 58.6028545804756007 39.7405557527158422 17.5448402050934327   F   F   F
 15.5303442691756022 45.8494977688158514 17.5448402050934327   F   F   F
 21.9783156131756030 45.8494977688158514 17.5448402050934327   F   F   F
 28.4262869571756021 45.8494977688158514 17.5448402050934327   F   F   F
 34.8742583011756011 45.8494977688158514 17.5448402050934327   F   F   F
 41.3222296451756037 45.8494977688158514 17.5448402050934327   F   F   F
 47.7702009891756134 45.8494977688158514 17.5448402050934327   F   F   F
 54.2181723331756089 45.8494977688158514 17.5448402050934327   F   F   F
 60.6661436771756044 45.8494977688158514 17.5448402050934327   F   F   F
 26.3629978604755983 39.7405557527158422 17.5448402050934327   F   F   F
 22.2364196670756016 27.5226717205158486 17.5448402050934327   F   F   F
 15.7884483230756025 27.5226717205158486 17.5448402050934327   F   F   F
  9.3404769790756017 27.5226717205158486 17.5448402050934327   F   F   F
 20.4312346242756000  3.0869036561158465 17.5448402050934327   F   F   F
 26.8792059682756026  3.0869036561158465 17.5448402050934327   F   F   F
 33.3271773122756017  3.0869036561158465 17.5448402050934327   F   F   F
 39.7751486562756043  3.0869036561158465 17.5448402050934327   F   F   F
 46.2231200002755998  3.0869036561158465 17.5448402050934327   F   F   F
  3.1506096889756012  9.1958456722158477 17.5448402050934327   F   F   F
  9.5985810329756021  9.1958456722158477 17.5448402050934327   F   F   F
 16.0465523769756011  9.1958456722158477 17.5448402050934327   F   F   F
 22.4945237209756002  9.1958456722158477 17.5448402050934327   F   F   F
 28.9424950649756028  9.1958456722158477 17.5448402050934327   F   F   F
 35.3904664089756054  9.1958456722158477 17.5448402050934327   F   F   F
 41.8384377529756080  9.1958456722158477 17.5448402050934327   F   F   F
 48.2864090969756035  9.1958456722158477 17.5448402050934327   F   F   F
  5.2138987856756005 15.3047876883158462 17.5448402050934327   F   F   F
 11.6618701296756004 15.3047876883158462 17.5448402050934327   F   F   F
 18.1098414736755942 15.3047876883158462 17.5448402050934327   F   F   F
 24.5578128176756003 15.3047876883158462 17.5448402050934327   F   F   F
 31.0057841616756029 15.3047876883158462 17.5448402050934327   F   F   F
 37.4537555056756020 15.3047876883158462 17.5448402050934327   F   F   F
 43.9017268496756046 15.3047876883158462 17.5448402050934327   F   F   F
 50.3496981936756001 15.3047876883158462 17.5448402050934327   F   F   F
  7.2771878823756007 21.4137297044158466 17.5448402050934327   F   F   F
 13.7251592263756006 21.4137297044158466 17.5448402050934327   F   F   F
 20.1731305703755943 21.4137297044158466 17.5448402050934327   F   F   F
 26.6211019143756005 21.4137297044158466 17.5448402050934327   F   F   F
 33.0690732583756031 21.4137297044158466 17.5448402050934327   F   F   F
 39.5170446023755915 21.4137297044158466 17.5448402050934327   F   F   F
 45.9650159463756012 21.4137297044158466 17.5448402050934327   F   F   F
 52.4129872903755967 21.4137297044158466 17.5448402050934327   F   F   F
 51.2059738343413997 36.7482826629003867 11.6694502797732387   F   F   F
 57.6539451783414023 36.7482826629003867 11.6694502797732387   F   F   F
  4.7389851237542686  5.8404637154923318 10.8100903574230109   F   F   F
 61.1918110962783928 48.8783662990794738 22.4052211430811354   T   T   T
 13.8698097699267802 12.2611804134481943 17.5557804298871964   F   F   F
 20.3177811139267810 12.2611804134481943 17.5557804298871964   F   F   F
 26.7657524579267800 12.2611804134481943 17.5557804298871964   F   F   F
 33.2137238019267755 12.2611804134481943 17.5557804298871964   F   F   F
 39.6616951459267710 12.2611804134481943 17.5557804298871964   F   F   F
 46.1096664899267665 12.2611804134481943 17.5557804298871964   F   F   F
 52.5576378339267762 12.2611804134481943 17.5557804298871964   F   F   F
  9.4851275226267795 18.3701224295481964 17.5557804298871964   F   F   F
 15.9330988666267803 18.3701224295481964 17.5557804298871964   F   F   F
 22.3810702106267811 18.3701224295481964 17.5557804298871964   F   F   F
 28.8290415546267802 18.3701224295481964 17.5557804298871964   F   F   F
  7.4218384259267793 12.2611804134481943 17.5557804298871964   F   F   F
 35.2770128986267792 18.3701224295481964 17.5557804298871964   F   F   F
 48.1729555866267773 18.3701224295481964 17.5557804298871964   F   F   F
 54.6209269306267799 18.3701224295481964 17.5557804298871964   F   F   F
 11.5484166193267779 24.4790644456481914 17.5557804298871964   F   F   F
 17.9963879633267787 24.4790644456481914 17.5557804298871964   F   F   F
 24.4443593073267813 24.4790644456481914 17.5557804298871964   F   F   F
 30.8923306513267875 24.4790644456481914 17.5557804298871964   F   F   F
 37.3403019953267759 24.4790644456481914 17.5557804298871964   F   F   F
 43.7882733393267785 24.4790644456481914 17.5557804298871964   F   F   F
 50.2362446833267740 24.4790644456481914 17.5557804298871964   F   F   F
 56.6842160273267766 24.4790644456481914 17.5557804298871964   F   F   F
 13.6117057160267780 30.5880064617481935 17.5557804298871964   F   F   F
 41.7249842426267818 18.3701224295481964 17.5557804298871964   F   F   F
 50.4943487372267796  6.1522383973481931 17.5557804298871964   F   F   F
 44.0463773932267770  6.1522383973481931 17.5557804298871964   F   F   F
 37.5984060492267815  6.1522383973481931 17.5557804298871964   F   F   F
 39.2684806931103623 39.7516694638054702 13.7775523580810564   F   F   F
 45.7164520371103507 39.7516694638054702 13.7775523580810564   F   F   F
 52.1644233811103533 39.7516694638054702 13.7775523580810564   F   F   F
 58.6123947251103488 39.7516694638054702 13.7775523580810564   F   F   F
 15.5398844138103520 45.8606114799054723 13.7775523580810564   F   F   F
 21.9878557578103511 45.8606114799054723 13.7775523580810564   F   F   F
 28.4358271018103537 45.8606114799054723 13.7775523580810564   F   F   F
 34.8837984458103634 45.8606114799054723 13.7775523580810564   F   F   F
 41.3317697898103518 45.8606114799054723 13.7775523580810564   F   F   F
 47.7797411338103544 45.8606114799054723 13.7775523580810564   F   F   F
 54.2277124778103641 45.8606114799054723 13.7775523580810564   F   F   F
 60.6756838218103596 45.8606114799054723 13.7775523580810564   F   F   F
  3.2952602325267786  0.0432963812481926 17.5557804298871964   F   F   F
  9.7432315765267798  0.0432963812481926 17.5557804298871964   F   F   F
 16.1912029205267807  0.0432963812481926 17.5557804298871964   F   F   F
 22.6391742645267797  0.0432963812481926 17.5557804298871964   F   F   F
 29.0871456085267788  0.0432963812481926 17.5557804298871964   F   F   F
 35.5351169525267778  0.0432963812481926 17.5557804298871964   F   F   F
 41.9830882965267733  0.0432963812481926 17.5557804298871964   F   F   F
 48.4310596405267759  0.0432963812481926 17.5557804298871964   F   F   F
  5.3585493292267783  6.1522383973481931 17.5557804298871964   F   F   F
 11.8065206732267800  6.1522383973481931 17.5557804298871964   F   F   F
 18.2544920172267808  6.1522383973481931 17.5557804298871964   F   F   F
 24.7024633612267799  6.1522383973481931 17.5557804298871964   F   F   F
 31.1504347052267789  6.1522383973481931 17.5557804298871964   F   F   F
 20.0596770600267789 30.5880064617481935 17.5557804298871964   F   F   F
 32.8205093491103526 39.7516694638054702 13.7775523580810564   F   F   F
 26.5076484040267815 30.5880064617481935 17.5557804298871964   F   F   F
 39.4035910920267796 30.5880064617481935 17.5557804298871964   F   F   F
  5.2974710959614555 15.2003307227565472 21.2324236267983117   T   T   T
 11.6802902773807382 15.4346973289179612 21.3150725807520622   T   T   T
 18.1083554440995051 15.3944032546832759 21.3381055303674323   T   T   T
 24.7852711481878174 15.1565665268537106 21.2962152272529259   T   T   T
 31.3191577758694955 15.0907335527548927 21.1381924753467416   T   T   T
 37.3249427998170304 15.4396647622924306 21.1768836124951214   T   T   T
 50.4379571242255977 15.1023638469161465 21.2554061194700701   T   T   T
 13.6383552977403184 21.5841632014984626 21.2162129842583553   T   T   T
 20.1815955803053235 21.3422341515116756 21.3461350986585607   T   T   T
 26.6200866826815350 21.2033297870561448 21.2755853017037033   T   T   T
 33.2251404743998791 21.3053190418054257 21.2965181099104832   T   T   T
 48.4916278192759123  8.8836137572251008 21.2852070740776824   T   T   T
 39.5687390117332072 21.3645462894529956 21.2281780154021575   T   T   T
 52.4811607079893676 21.3214409278646428 21.3360625852317263   T   T   T
  9.2918082779055133 27.3104941663897733 21.2046591250716325   T   T   T
 15.9908058140268530 27.3291177877130380 21.3736850415710116   T   T   T
 22.2238765397991607 27.6850892392684749 21.2953917573826459   T   T   T
 28.7380035025204634 27.6001901750435188 21.2508812761715085   T   T   T
 41.5577258720211304 27.5001076903327721 21.2046765150506147   T   T   T
 48.2432296829521619 27.4349455006477285 21.3800251849772280   T   T   T
 11.6051062448336495 33.4794517146771398 21.3432721497386559   T   T   T
 17.8794452608896002 33.7481896459891573 21.2309485888660276   T   T   T
 24.4323128429975327 33.5635952757045288 21.3613417111932442   T   T   T
 30.8831783638356647 33.5776246217035066 21.2667740512516374   T   T   T
 45.9815090627035516 21.4515533504660674 21.3063299536480955   T   T   T
 41.8505452342367406  9.3562166775041256 21.2877083570292527   T   T   T
 35.5767436827296635  8.9676124669227963 21.3415589637953822   T   T   T
 29.0640293569635233  9.1383649678488386 21.2997883476033927   T   T   T
 45.8515624360267822 30.5880064617481935 17.5557804298871964   F   F   F
 52.2995337800267777 30.5880064617481935 17.5557804298871964   F   F   F
 58.7475051240267803 30.5880064617481935 17.5557804298871964   F   F   F
 15.6749948127267782 36.6969484778481956 17.5557804298871964   F   F   F
 22.1229661567267790 36.6969484778481956 17.5557804298871964   F   F   F
 28.5709375007267816 36.6969484778481956 17.5557804298871964   F   F   F
 35.0189088447267878 36.6969484778481956 17.5557804298871964   F   F   F
 41.4668801887267762 36.6969484778481956 17.5557804298871964   F   F   F
 67.0979259764292948 48.1093005652711625 22.5113748611398883   T   T   T
 54.3628228767267743 36.6969484778481956 17.5557804298871964   F   F   F
 60.8107942207267769 36.6969484778481956 17.5557804298871964   F   F   F
 17.7382839094267837 42.8058904939481906 17.5557804298871964   F   F   F
 24.1862552534267792 42.8058904939481906 17.5557804298871964   F   F   F
 30.6342265974267818 42.8058904939481906 17.5557804298871964   F   F   F
 37.0821979414267773 42.8058904939481906 17.5557804298871964   F   F   F
 43.5301692854267870 42.8058904939481906 17.5557804298871964   F   F   F
 49.9781406294267896 42.8058904939481906 17.5557804298871964   F   F   F
 56.4261119734267851 42.8058904939481906 17.5557804298871964   F   F   F
 62.8740833174267806 42.8058904939481906 17.5557804298871964   F   F   F
  7.5727625726530468  3.1472133307226673 21.2036220401075539   T   T   T
 14.2930674168002376  3.0055478426532689 21.3183747287708094   T   T   T
 20.4147164293354777  3.3155613230618002 21.2906646911831565   T   T   T
 26.8470107598715160  2.8777877900108493 21.2134104485750576   T   T   T
  9.6832324100125415  9.1503683575612484 21.1995139745959662   T   T   T
 22.2865581390067860  9.0657434151901271 21.3002957462847178   T   T   T
 32.9556197480267770 30.5880064617481935 17.5557804298871964   F   F   F
 26.3725380051103535 39.7516694638054702 13.7775523580810564   F   F   F
 19.9245666611103509 39.7516694638054702 13.7775523580810564   F   F   F
 13.4765953171103519 39.7516694638054702 13.7775523580810564   F   F   F
 49.6166804778542598 24.1672897637923327 10.8100903574230109   F   F   F
 56.0646518218542695 24.1672897637923327 10.8100903574230109   F   F   F
 12.9921415105542710 30.2762317798923348 10.8100903574230109   F   F   F
 19.4401128545542754 30.2762317798923348 10.8100903574230109   F   F   F
 25.8880841985542745 30.2762317798923348 10.8100903574230109   F   F   F
 32.3360555425542842 30.2762317798923348 10.8100903574230109   F   F   F
 38.7840268865542726 30.2762317798923348 10.8100903574230109   F   F   F
 45.2319982305542752 30.2762317798923348 10.8100903574230109   F   F   F
 51.6799695745542707 30.2762317798923348 10.8100903574230109   F   F   F
 58.1279409185542733 30.2762317798923348 10.8100903574230109   F   F   F
 15.0554306072542712 36.3851737959923369 10.8100903574230109   F   F   F
 43.1687091338542643 24.1672897637923327 10.8100903574230109   F   F   F
 21.5034019512542756 36.3851737959923369 10.8100903574230109   F   F   F
 34.3993446392542737 36.3851737959923369 10.8100903574230109   F   F   F
 40.8473159832542763 36.3851737959923369 10.8100903574230109   F   F   F
 47.2952873272542860 36.3851737959923369 10.8100903574230109   F   F   F
 53.7432586712542815 36.3851737959923369 10.8100903574230109   F   F   F
 60.1912300152542770 36.3851737959923369 10.8100903574230109   F   F   F
 17.1187197039542696 42.4941158120923390 10.8100903574230109   F   F   F
 23.5666910479542757 42.4941158120923390 10.8100903574230109   F   F   F
 30.0146623919542748 42.4941158120923390 10.8100903574230109   F   F   F
 36.4626337359542845 42.4941158120923390 10.8100903574230109   F   F   F
 42.9106050799542729 42.4941158120923390 10.8100903574230109   F   F   F
 49.3585764239542755 42.4941158120923390 10.8100903574230109   F   F   F
 27.9513732952542746 36.3851737959923369 10.8100903574230109   F   F   F
 36.7207377898542688 24.1672897637923327 10.8100903574230109   F   F   F
 30.2727664458542733 24.1672897637923327 10.8100903574230109   F   F   F
 23.8247951018542743 24.1672897637923327 10.8100903574230109   F   F   F
 11.1869564677542748  5.8404637154923318 10.8100903574230109   F   F   F
 17.6349278117542738  5.8404637154923318 10.8100903574230109   F   F   F
 24.0828991557542729  5.8404637154923318 10.8100903574230109   F   F   F
 30.5308704997542719  5.8404637154923318 10.8100903574230109   F   F   F
 36.9788418437542745  5.8404637154923318 10.8100903574230109   F   F   F
 43.4268131877542700  5.8404637154923318 10.8100903574230109   F   F   F
 49.8747845317542726  5.8404637154923318 10.8100903574230109   F   F   F
  6.8022742204542697 11.9494057315923321 10.8100903574230109   F   F   F
 13.2502455644542749 11.9494057315923321 10.8100903574230109   F   F   F
 19.6982169084542740 11.9494057315923321 10.8100903574230109   F   F   F
 26.1461882524542730 11.9494057315923321 10.8100903574230109   F   F   F
 32.5941595964542756 11.9494057315923321 10.8100903574230109   F   F   F
 39.0421309404542853 11.9494057315923321 10.8100903574230109   F   F   F
 45.4901022844542808 11.9494057315923321 10.8100903574230109   F   F   F
 51.9380736284542763 11.9494057315923321 10.8100903574230109   F   F   F
  8.8655633171542672 18.0583477476923271 10.8100903574230109   F   F   F
 15.3135346611542733 18.0583477476923271 10.8100903574230109   F   F   F
 21.7615060051542706 18.0583477476923271 10.8100903574230109   F   F   F
 28.2094773491542696 18.0583477476923271 10.8100903574230109   F   F   F
 34.6574486931542722 18.0583477476923271 10.8100903574230109   F   F   F
 41.1054200371542748 18.0583477476923271 10.8100903574230109   F   F   F
 47.5533913811542703 18.0583477476923271 10.8100903574230109   F   F   F
 54.0013627251542729 18.0583477476923271 10.8100903574230109   F   F   F
 10.9288524138542691 24.1672897637923327 10.8100903574230109   F   F   F
 17.3768237578542752 24.1672897637923327 10.8100903574230109   F   F   F
 55.8065477679542710 42.4941158120923390 10.8100903574230109   F   F   F
 62.2545191119542736 42.4941158120923390 10.8100903574230109   F   F   F
 19.1820088006542697 48.6030578281923340 10.8100903574230109   F   F   F
 25.6299801446542759 48.6030578281923340 10.8100903574230109   F   F   F
 50.3592383383103481 15.3159013994054689 13.7775523580810564   F   F   F
  7.2867280270103514 21.4248434155054710 13.7775523580810564   F   F   F
 13.7346993710103504 21.4248434155054710 13.7775523580810564   F   F   F
 20.1826707150103530 21.4248434155054710 13.7775523580810564   F   F   F
 26.6306420590103521 21.4248434155054710 13.7775523580810564   F   F   F
 33.0786134030103511 21.4248434155054710 13.7775523580810564   F   F   F
 39.5265847470103537 21.4248434155054710 13.7775523580810564   F   F   F
 45.9745560910103563 21.4248434155054710 13.7775523580810564   F   F   F
 52.4225274350103518 21.4248434155054710 13.7775523580810564   F   F   F
  9.3500171237103515 27.5337854316054695 13.7775523580810564   F   F   F
 15.7979884677103506 27.5337854316054695 13.7775523580810564   F   F   F
 22.2459598117103532 27.5337854316054695 13.7775523580810564   F   F   F
 28.6939311557103522 27.5337854316054695 13.7775523580810564   F   F   F
 35.1419024997103620 27.5337854316054695 13.7775523580810564   F   F   F
 41.5898738437103503 27.5337854316054695 13.7775523580810564   F   F   F
 48.0378451877103529 27.5337854316054695 13.7775523580810564   F   F   F
 54.4858165317103484 27.5337854316054695 13.7775523580810564   F   F   F
 11.4133062204103499 33.6427274477054681 13.7775523580810564   F   F   F
 17.8612775644103507 33.6427274477054681 13.7775523580810564   F   F   F
 24.3092489084103569 33.6427274477054681 13.7775523580810564   F   F   F
 30.7572202524103524 33.6427274477054681 13.7775523580810564   F   F   F
 37.2051915964103586 33.6427274477054681 13.7775523580810564   F   F   F
 43.6531629404103541 33.6427274477054681 13.7775523580810564   F   F   F
 50.1011342844103567 33.6427274477054681 13.7775523580810564   F   F   F
 56.5491056284103522 33.6427274477054681 13.7775523580810564   F   F   F
 43.9112669943103526 15.3159013994054689 13.7775523580810564   F   F   F
 37.3208937064724893 33.3847413968354729 21.2259113082399580   T   T   T
 37.4632956503103500 15.3159013994054689 13.7775523580810564   F   F   F
 24.5673529623103519 15.3159013994054689 13.7775523580810564   F   F   F
 32.0779514886542785 48.6030578281923340 10.8100903574230109   F   F   F
 38.5259228326542740 48.6030578281923340 10.8100903574230109   F   F   F
 44.9738941766542766 48.6030578281923340 10.8100903574230109   F   F   F
 51.4218655206542792 48.6030578281923340 10.8100903574230109   F   F   F
 57.8698368646542747 48.6030578281923340 10.8100903574230109   F   F   F
 64.3178082086542702 48.6030578281923340 10.8100903574230109   F   F   F
  1.0968607369103509  3.0980173672054669 13.7775523580810564   F   F   F
  7.5448320809103500  3.0980173672054669 13.7775523580810564   F   F   F
 13.9928034249103508  3.0980173672054669 13.7775523580810564   F   F   F
 20.4407747689103516  3.0980173672054669 13.7775523580810564   F   F   F
 26.8887461129103507  3.0980173672054669 13.7775523580810564   F   F   F
 33.3367174569103497  3.0980173672054669 13.7775523580810564   F   F   F
 39.7846888009103523  3.0980173672054669 13.7775523580810564   F   F   F
 46.2326601449103478  3.0980173672054669 13.7775523580810564   F   F   F
  3.1601498336103511  9.2069593833054668 13.7775523580810564   F   F   F
  9.6081211776103501  9.2069593833054668 13.7775523580810564   F   F   F
 16.0560925216103527  9.2069593833054668 13.7775523580810564   F   F   F
 22.5040638656103518  9.2069593833054668 13.7775523580810564   F   F   F
 28.9520352096103508  9.2069593833054668 13.7775523580810564   F   F   F
 35.4000065536103605  9.2069593833054668 13.7775523580810564   F   F   F
 41.8479778976103631  9.2069593833054668 13.7775523580810564   F   F   F
 48.2959492416103586  9.2069593833054668 13.7775523580810564   F   F   F
  5.2234389303103512 15.3159013994054689 13.7775523580810564   F   F   F
 11.6714102743103503 15.3159013994054689 13.7775523580810564   F   F   F
 18.1193816183103529 15.3159013994054689 13.7775523580810564   F   F   F
 31.0153243063103510 15.3159013994054689 13.7775523580810564   F   F   F
 43.7495894712554687 33.5360868068107720 21.2473745520313457   T   T   T
 47.9148515327267788 36.6969484778481956 17.5557804298871964   F   F   F
 56.5966353172534440 33.6654705072134632 21.2436822250265784   T   T   T
 42.9005001302745512  3.2068259183163845 19.3784591772441317   T   T   T
  6.3818825110806081  9.2852602955014572 19.4476858758895865   T   T   T
 12.8896427642924305  9.2895434257668210 19.4904746475153949   T   T   T
 19.1315806877978751  9.2607538826693609 19.3549262599765903   T   T   T
 32.2749461145071095  9.1920818780818614 19.4848609687313221   T   T   T
 38.6208309251955129  9.3125521944491965 19.4472293950431165   T   T   T
 45.1178336308041423  9.1570166115345604 19.4605483611637844   T   T   T
 51.5006239198675999  9.1744069145219687 19.3759878901571092   T   T   T
  8.4413037282715866 15.3249338765922936 19.3992926884125652   T   T   T
 14.8828924465456414 15.3671563063855920 19.4350522339697989   T   T   T
 21.3756575118316121 15.3473678622310334 19.4540624044485035   T   T   T
 36.5437101799269186  3.2003916644681971 19.3918874267074202   T   T   T
 27.9186951131107755 15.2584079746206420 19.4608151167219638   T   T   T
 47.0915889201929545 15.3428897295457176 19.4146429344792857   T   T   T
 53.5930314588304313 15.2674602908808712 19.3891100399155967   T   T   T
 50.2705528539155395 33.4683621775016107 21.2931183500884273   T   T   T
 16.9510269975324945 21.4908030184923113 19.4381529719651134   T   T   T
 23.4060316989469754 21.4086173539707545 19.4283660064430599   T   T   T
 36.3379183468156626 21.4081871616550465 19.4184376138355148   T   T   T
 42.7261672888047599 21.4321975497319137 19.4131864824138489   T   T   T
 49.2252401752264532 21.4310604309153732 19.4335365520049272   T   T   T
 55.6529243034339274 21.4716775282557926 19.4585384424207994   T   T   T
 19.0255711943655719 27.6129106159006632 19.4391819909208294   T   T   T
 25.4204413787557506 27.5000673418305652 19.3812560687877067   T   T   T
 40.7704310335851048 15.3619423433040740 19.5022101183060244   T   T   T
 30.1608520183507132  3.1198381975802678 19.4764438016808228   T   T   T
 23.6408711688888680  3.1245188968300899 19.4019299410491755   T   T   T
 17.2257246036903489  3.1406286277104831 19.4175606421226910   T   T   T
 10.3877200117868966 30.5880064617481935 15.6367268423086472   F   F   F
 16.8356913557868957 30.5880064617481935 15.6367268423086472   F   F   F
 23.2836626997869018 30.5880064617481935 15.6367268423086472   F   F   F
 29.7316340437868973 30.5880064617481935 15.6367268423086472   F   F   F
 36.1796053877868999 30.5880064617481935 15.6367268423086472   F   F   F
 42.6275767317868954 30.5880064617481935 15.6367268423086472   F   F   F
 49.0755480757868980 30.5880064617481935 15.6367268423086472   F   F   F
 55.5235194197869006 30.5880064617481935 15.6367268423086472   F   F   F
 12.4510091084868968 36.6969484778481956 15.6367268423086472   F   F   F
 18.8989804524868958 36.6969484778481956 15.6367268423086472   F   F   F
 25.3469517964869020 36.6969484778481956 15.6367268423086472   F   F   F
 31.7949231404868975 36.6969484778481956 15.6367268423086472   F   F   F
 38.2428944844868965 36.6969484778481956 15.6367268423086472   F   F   F
 44.6908658284868920 36.6969484778481956 15.6367268423086472   F   F   F
 51.1388371724868946 36.6969484778481956 15.6367268423086472   F   F   F
 57.5868085164868972 36.6969484778481956 15.6367268423086472   F   F   F
 14.5142982051868952 42.8058904939481906 15.6367268423086472   F   F   F
 20.9622695491868960 42.8058904939481906 15.6367268423086472   F   F   F
 27.4102408931869022 42.8058904939481906 15.6367268423086472   F   F   F
 33.8582122371869048 42.8058904939481906 15.6367268423086472   F   F   F
 40.3061835811869003 42.8058904939481906 15.6367268423086472   F   F   F
 46.7541549251868958 42.8058904939481906 15.6367268423086472   F   F   F
 53.2021262691869055 42.8058904939481906 15.6367268423086472   F   F   F
 59.6500976131869010 42.8058904939481906 15.6367268423086472   F   F   F
  4.4485418069873699  3.0277339379226458 19.4116059039288622   T   T   T
 31.9548563539816399 27.6600996280874334 19.4941859927144243   T   T   T
 53.4602303230868969 24.4790644456481914 15.6367268423086472   F   F   F
 38.2100337654244413 27.5267172921663494 19.3276815675980380   T   T   T
 51.2963980881852208 27.6675151593782616 19.4826502194799680   T   T   T
 42.6316294806341389 11.8241580322587083 22.3105191031366523   T   T   T
 54.9080378509342708 10.2185067871202140 21.5715424500073638   T   T   T
 12.1744875744969221 18.4469902449646526 22.6129968855326631   T   T   T
 18.8782138325943869 17.7825099839346130 22.5198911050750930   T   T   T
 25.4703407376692965 17.5894229416191195 22.3135327589220012   T   T   T
 45.0674451715918920 17.8467743934453118 22.8667094126598336   T   T   T
 51.2302955899982280 17.6424792941409656 22.4630535354206344   T   T   T
 57.6124096261298817 18.0033534465794318 22.6801659139912140   T   T   T
 27.5302259155421467 23.5417730128109284 21.8029720591920295   T   T   T
 33.4778502671765708 23.6836064376978719 22.5114655030323263   T   T   T
 46.8371051087192640 23.8785443229505248 22.2192869959950983   T   T   T
 23.4786006463926533 11.3353817136206327 21.7857156472691358   T   T   T
 23.0365239840735896 29.9846348513310197 22.4527043894111173   T   T   T
 37.4257889030258042 35.8456191824036310 22.2052049298630578   T   T   T
 44.1971466902585490 36.4843963280152224 22.2900310695177879   T   T   T
 51.1417295754738390 36.1350050091962203 22.5291480504841850   T   T   T
 63.9235696885564906 36.0118002597912437 22.5582721687672390   T   T   T
 20.9114820082525981 42.1090625330958161 22.5288571530151280   T   T   T
 46.4584674763857919 42.1362365458577344 22.0768267975362704   T   T   T
 65.7375307595685143 42.2161702788267590 22.2615289705252017   T   T   T
 22.6351356815155533 48.6285336945887110 22.2636034447039250   T   T   T
 41.6089866072393875 47.6284378388719816 21.7024390910885110   T   T   T
 48.6728573734268437 48.3541236284171703 22.3767571106235899   T   T   T
 54.3202801539489997 47.8675761839685876 22.4920357539042151   T   T   T
 61.8589698658805673 29.7202104168983361 21.8316875085977742   T   T   T
 16.8583194599691915 11.9731429916333827 22.8010019047675705   T   T   T
 10.5135212252820445 11.9752259146046587 22.6108948124815967   T   T   T
 27.9163904477346492  5.6329790819555701 22.4788877479740314   T   T   T
 57.5830356643211090 27.5048580840621852 19.3585857060044972   T   T   T
 14.6234326105824302 33.6796962153046451 19.3946740704138740   T   T   T
 21.1082556601838469 33.6728495443298854 19.4455310169592224   T   T   T
 27.5441089041961007 33.6636706708142626 19.4453103732537684   T   T   T
 34.0494020988880877 33.6987765367102483 19.4886773833065483   T   T   T
 40.4809512470208475 33.6036086466277126 19.4273575586093337   T   T   T
 46.9547921767216394 33.6317916430879364 19.4741455355516599   T   T   T
 53.2969938367536642 33.6769087320083500 19.3903054904231205   T   T   T
 59.7940473814316888 33.6496339554965544 19.4520685689330648   T   T   T
 16.7487622137114052 39.7774199576997631 19.4626345331921655   T   T   T
 23.1736306508544097 39.8556379283108342 19.4553999298066032   T   T   T
 29.5398263303428372 39.7555019683189457 19.3774605242865761   T   T   T
 42.4359592184811518 39.7491429946845685 19.3656517177474328   T   T   T
 48.9224065268073076 39.8300675193126139 19.4674681680035633   T   T   T
 55.2839856916485530 39.8426954485598799 19.4183639211535244   T   T   T
 61.9492728821992742 39.7403289826431916 19.4374694822576473   T   T   T
 18.7739968641190735 45.8869563403622962 19.4338014735940234   T   T   T
 25.2605115818335655 45.9054445862505602 19.4478743517388999   T   T   T
 31.7402589853639761 45.8979771199968027 19.4991459643026701   T   T   T
 38.1666947816745008 45.9689796964466098 19.4789462555633932   T   T   T
 44.5120505837497689 45.9200226997975918 19.4380711115733256   T   T   T
 51.1289283237015795 45.8524309512964479 19.4907558567788115   T   T   T
 57.4377874212343968 45.8490605074148334 19.3747992762757555   T   T   T
 14.3656446732953995  5.2694026192548744 22.6029928088292813   T   T   T
 21.1272362816624764  5.6488581918472454 22.3664338392820987   T   T   T
 44.8617293101845149 27.5498030410823489 19.4624544815441141   T   T   T
 47.0122589790868943 24.4790644456481914 15.6367268423086472   F   F   F
 10.4098357561425559 21.5151331530642551 19.4078094736062994   T   T   T
 34.1163162910868962 24.4790644456481914 15.6367268423086472   F   F   F
 27.7873350632696940 15.2850796243687928 11.8524376351144216   F   F   F
 34.2353064072696824 15.2850796243687928 11.8524376351144216   F   F   F
 40.6832777512696921 15.2850796243687928 11.8524376351144216   F   F   F
 47.1312490952696876 15.2850796243687928 11.8524376351144216   F   F   F
 53.5792204392696902 15.2850796243687928 11.8524376351144216   F   F   F
 10.5067101279696935 21.3940216404687931 11.8524376351144216   F   F   F
 16.9546814719696926 21.3940216404687931 11.8524376351144216   F   F   F
 23.4026528159696952 21.3940216404687931 11.8524376351144216   F   F   F
 29.8506241599696942 21.3940216404687931 11.8524376351144216   F   F   F
 36.2985955039696933 21.3940216404687931 11.8524376351144216   F   F   F
 42.7465668479696959 21.3940216404687931 11.8524376351144216   F   F   F
 21.3393637192696950 15.2850796243687928 11.8524376351144216   F   F   F
 49.1945381919696914 21.3940216404687931 11.8524376351144216   F   F   F
 12.5699992246696937 27.5029636565687952 11.8524376351144216   F   F   F
 19.0179705686696927 27.5029636565687952 11.8524376351144216   F   F   F
 25.4659419126696953 27.5029636565687952 11.8524376351144216   F   F   F
 31.9139132566696944 27.5029636565687952 11.8524376351144216   F   F   F
 38.3618846006696828 27.5029636565687952 11.8524376351144216   F   F   F
 44.8098559446696854 27.5029636565687952 11.8524376351144216   F   F   F
 51.2578272886696809 27.5029636565687952 11.8524376351144216   F   F   F
 57.7057986326696906 27.5029636565687952 11.8524376351144216   F   F   F
 14.6332883213696938 33.6119056726687973 11.8524376351144216   F   F   F
 21.0812596653696929 33.6119056726687973 11.8524376351144216   F   F   F
 27.5292310093696955 33.6119056726687973 11.8524376351144216   F   F   F
 55.6425095359696940 21.3940216404687931 11.8524376351144216   F   F   F
 14.8913923752696942 15.2850796243687928 11.8524376351144216   F   F   F
  8.4434210312696933 15.2850796243687928 11.8524376351144216   F   F   F
 51.5159313425696936  9.1761376082687942 11.8524376351144216   F   F   F
 13.5213159893743953 39.7702120877900640 21.3360896415265060   T   T   T
 20.0768403545580654 39.5706880843783111 21.2928307969582455   T   T   T
 32.8071113023804628 39.8147107950739070 21.0938436719701770   T   T   T
 45.4572468313208020 39.8264648699161299 21.2636454395135210   T   T   T
 15.6267517323547978 45.7984769507049947 21.2681658406153815   T   T   T
 22.0780029124359274 45.9339227823443679 21.3386443354881834   T   T   T
 35.0574340019096056 45.6430997220833206 21.2944162844954903   T   T   T
 47.9485682205692498 45.8145858015005132 21.3115416067673742   T   T   T
 54.4971716511726356 45.5422525712228037 21.2470809092860655   T   T   T
 40.5642876350868917 24.4790644456481914 15.6367268423086472   F   F   F
  4.3168428378696939  3.0671955921687934 11.8524376351144216   F   F   F
 10.7648141818696939  3.0671955921687934 11.8524376351144216   F   F   F
 17.2127855258696947  3.0671955921687934 11.8524376351144216   F   F   F
 23.6607568698696937  3.0671955921687934 11.8524376351144216   F   F   F
 30.1087282138696928  3.0671955921687934 11.8524376351144216   F   F   F
 36.5566995578696847  3.0671955921687934 11.8524376351144216   F   F   F
 43.0046709018696802  3.0671955921687934 11.8524376351144216   F   F   F
 49.4526422458696899  3.0671955921687934 11.8524376351144216   F   F   F
  6.3801319345696941  9.1761376082687942 11.8524376351144216   F   F   F
 12.8281032785696940  9.1761376082687942 11.8524376351144216   F   F   F
 19.2760746225696948  9.1761376082687942 11.8524376351144216   F   F   F
 25.7240459665696939  9.1761376082687942 11.8524376351144216   F   F   F
 32.1720173105696929  9.1761376082687942 11.8524376351144216   F   F   F
 38.6199886545696955  9.1761376082687942 11.8524376351144216   F   F   F
 45.0679599985696910  9.1761376082687942 11.8524376351144216   F   F   F
 33.9772023533696839 33.6119056726687973 11.8524376351144216   F   F   F
 40.4251736973696936 33.6119056726687973 11.8524376351144216   F   F   F
 60.6334293901011563 46.0550464982340060 21.1408104725961756   T   T   T
 53.3211163853696917 33.6119056726687973 11.8524376351144216   F   F   F
 27.9264490009868993  6.1522383973481931 15.6367268423086472   F   F   F
 34.3744203449868948  6.1522383973481931 15.6367268423086472   F   F   F
 40.8223916889868974  6.1522383973481931 15.6367268423086472   F   F   F
 47.2703630329869000  6.1522383973481931 15.6367268423086472   F   F   F
  4.1978527216868970 12.2611804134481943 15.6367268423086472   F   F   F
 10.6458240656868970 12.2611804134481943 15.6367268423086472   F   F   F
 17.0937954096868978 12.2611804134481943 15.6367268423086472   F   F   F
 23.5417667536868969 12.2611804134481943 15.6367268423086472   F   F   F
 29.9897380976868995 12.2611804134481943 15.6367268423086472   F   F   F
 36.4377094416868914 12.2611804134481943 15.6367268423086472   F   F   F
 42.8856807856868869 12.2611804134481943 15.6367268423086472   F   F   F
 21.4784776569868967  6.1522383973481931 15.6367268423086472   F   F   F
 49.3336521296868966 12.2611804134481943 15.6367268423086472   F   F   F
 12.7091131623868971 18.3701224295481964 15.6367268423086472   F   F   F
 19.1570845063868980 18.3701224295481964 15.6367268423086472   F   F   F
 25.6050558503868970 18.3701224295481964 15.6367268423086472   F   F   F
 32.0530271943868996 18.3701224295481964 15.6367268423086472   F   F   F
 38.5009985383868951 18.3701224295481964 15.6367268423086472   F   F   F
 44.9489698823868977 18.3701224295481964 15.6367268423086472   F   F   F
  8.3244309150868965 24.4790644456481914 15.6367268423086472   F   F   F
 14.7724022590868973 24.4790644456481914 15.6367268423086472   F   F   F
 21.2203736030869017 24.4790644456481914 15.6367268423086472   F   F   F
 27.6683449470868972 24.4790644456481914 15.6367268423086472   F   F   F
 46.8731450413696962 33.6119056726687973 11.8524376351144216   F   F   F
  6.2611418183868972 18.3701224295481964 15.6367268423086472   F   F   F
 15.0305063129868977  6.1522383973481931 15.6367268423086472   F   F   F
 51.3969412263869003 18.3701224295481964 15.6367268423086472   F   F   F
  2.1345636249868964  6.1522383973481931 15.6367268423086472   F   F   F
 59.7690877293696943 33.6119056726687973 11.8524376351144216   F   F   F
  8.5825349689868968  6.1522383973481931 15.6367268423086472   F   F   F
 16.6965774180696940 39.7208476887687922 11.8524376351144216   F   F   F
 23.1445487620696930 39.7208476887687922 11.8524376351144216   F   F   F
 36.0404914500696947 39.7208476887687922 11.8524376351144216   F   F   F
 42.4884627940696902 39.7208476887687922 11.8524376351144216   F   F   F
 48.9364341380696928 39.7208476887687922 11.8524376351144216   F   F   F
 55.3844054820696883 39.7208476887687922 11.8524376351144216   F   F   F
 61.8323768260696909 39.7208476887687922 11.8524376351144216   F   F   F
 18.7598665147696941 45.8297897048687943 11.8524376351144216   F   F   F
 25.2078378587696932 45.8297897048687943 11.8524376351144216   F   F   F
 31.6558092027696958 45.8297897048687943 11.8524376351144216   F   F   F
 38.1037805467696842 45.8297897048687943 11.8524376351144216   F   F   F
 29.5925201060696921 39.7208476887687922 11.8524376351144216   F   F   F
 50.9997232347696965 45.8297897048687943 11.8524376351144216   F   F   F
 44.5517518907696939 45.8297897048687943 11.8524376351144216   F   F   F
 32.3111312482868911  0.0432963812481926 15.6367268423086472   F   F   F
 19.4151885602868965  0.0432963812481926 15.6367268423086472   F   F   F
 12.9672172162868975  0.0432963812481926 15.6367268423086472   F   F   F
 25.8631599042868991  0.0432963812481926 15.6367268423086472   F   F   F
  0.0712745282868965  0.0432963812481926 15.6367268423086472   F   F   F
 63.8956659227696946 45.8297897048687943 11.8524376351144216   F   F   F
 45.2070739362868963  0.0432963812481926 15.6367268423086472   F   F   F
 57.4476945787696920 45.8297897048687943 11.8524376351144216   F   F   F
  6.5192458722868967  0.0432963812481926 15.6367268423086472   F   F   F
 38.7591025922868937  0.0432963812481926 15.6367268423086472   F   F   F
 21.4849967960694741 49.9397923504837777 22.9297206715584032   T   T   T
 40.9908473147222523 49.1108850357486801 22.8341757303085942   T   T   T
 17.6349278117542738  5.8404637154923318  9.2264274660354193   F   F   F
 47.4922403787382947 49.1344061328440702 23.5283671049255396   T   T   T
 53.3522485745679873 48.8764603994604343 23.8127082024021384   T   T   T
 60.0819478861068745 50.0820072574082431 23.2598096227835889   T   T   T
 66.3655896153146756 49.4786613693166260 23.5701641258135375   T   T   T
  4.7389851237542686  5.8404637154923318  9.2264274660354193   F   F   F
 11.1869564677542748  5.8404637154923318  9.2264274660354193   F   F   F
 49.8747845317542726  5.8404637154923318  9.2264274660354193   F   F   F
 30.5308704997542719  5.8404637154923318  9.2264274660354193   F   F   F
 36.9788418437542745  5.8404637154923318  9.2264274660354193   F   F   F
 43.4268131877542700  5.8404637154923318  9.2264274660354193   F   F   F
  6.8022742204542697 11.9494057315923321  9.2264274660354193   F   F   F
 13.2502455644542749 11.9494057315923321  9.2264274660354193   F   F   F
 19.6982169084542740 11.9494057315923321  9.2264274660354193   F   F   F
 26.1461882524542730 11.9494057315923321  9.2264274660354193   F   F   F
 64.5752649585512586 43.1188956006258550 23.3355749561104986   T   T   T
 32.5941595964542756 11.9494057315923321  9.2264274660354193   F   F   F
 39.0421309404542853 11.9494057315923321  9.2264274660354193   F   F   F
 24.0828991557542729  5.8404637154923318  9.2264274660354193   F   F   F
 45.3079530507355557 43.1495018107176662 23.0768399420563384   T   T   T
 50.0721756463698497 18.3927785134812396 23.6474602594777679   T   T   T
 62.6307804855562225 36.6783780638143213 23.6780242100692497   T   T   T
 26.9306574418745193  6.7032211460675795 23.5778235163964105   T   T   T
 45.4901022844542808 11.9494057315923321  9.2264274660354193   F   F   F
  9.5862052665977835 12.9456437463448761 23.8422048897510450   T   T   T
 15.8066611903774259 13.0876431979305110 23.7678875290918938   T   T   T
 22.5852518297769969 12.5815330335216977 22.8583258515928271   T   T   T
 41.4027220155833930 12.6738368367965446 23.3445909533443228   T   T   T
 54.6629552848261255 11.6653950955452892 22.8067494848270229   T   T   T
 10.9307712098070340 19.5269326997386017 23.5195166848418040   T   T   T
 17.7551580643404883 18.7086318890339598 23.6198260451502406   T   T   T
 19.6810635761996622 42.8435150864559446 23.6563323269486219   T   T   T
 24.3267917997093406 18.3946964650214468 23.4928583447273489   T   T   T
 56.6817069928101418 18.9574744632794427 23.9249631677099543   T   T   T
 26.3910777320359671 24.3636617451180939 23.0162616245262655   T   T   T
 32.6614875184649591 24.8184901812192074 23.7565418337955201   T   T   T
 45.6982282866740803 24.8950654436208190 23.2302746780382563   T   T   T
 21.8229720411723882 30.8313308609721766 23.5030038610330294   T   T   T
 60.8115565638778151 30.8399087597276846 22.8755320077438959   T   T   T
 36.5290837025622892 36.7954145184535761 23.5432587422838502   T   T   T
 43.0279930233723178 37.7269804391601653 23.0113870000033351   T   T   T
 49.8503168620635009 36.8337060931828830 23.6221635183463725   T   T   T
 43.5391805160567245 18.4675664948187652 23.5867174713446843   T   T   T
 51.9380736284542763 11.9494057315923321  9.2264274660354193   F   F   F
 27.9513732952542746 36.3851737959923369  9.2264274660354193   F   F   F
 15.3135346611542733 18.0583477476923271  9.2264274660354193   F   F   F
 34.3993446392542737 36.3851737959923369  9.2264274660354193   F   F   F
 40.8473159832542763 36.3851737959923369  9.2264274660354193   F   F   F
 47.2952873272542860 36.3851737959923369  9.2264274660354193   F   F   F
 53.7432586712542815 36.3851737959923369  9.2264274660354193   F   F   F
 60.1912300152542770 36.3851737959923369  9.2264274660354193   F   F   F
 17.1187197039542696 42.4941158120923390  9.2264274660354193   F   F   F
 23.5666910479542757 42.4941158120923390  9.2264274660354193   F   F   F
 30.0146623919542748 42.4941158120923390  9.2264274660354193   F   F   F
 36.4626337359542845 42.4941158120923390  9.2264274660354193   F   F   F
 21.5034019512542756 36.3851737959923369  9.2264274660354193   F   F   F
 42.9106050799542729 42.4941158120923390  9.2264274660354193   F   F   F
 55.8065477679542710 42.4941158120923390  9.2264274660354193   F   F   F
 62.2545191119542736 42.4941158120923390  9.2264274660354193   F   F   F
 19.1820088006542697 48.6030578281923340  9.2264274660354193   F   F   F
 25.6299801446542759 48.6030578281923340  9.2264274660354193   F   F   F
 32.0779514886542785 48.6030578281923340  9.2264274660354193   F   F   F
 38.5259228326542740 48.6030578281923340  9.2264274660354193   F   F   F
 44.9738941766542766 48.6030578281923340  9.2264274660354193   F   F   F
 51.4218655206542792 48.6030578281923340  9.2264274660354193   F   F   F
 19.9468704903599097  6.8315990738702608 23.1186257112050342   T   T   T
 49.3585764239542755 42.4941158120923390  9.2264274660354193   F   F   F
  8.8655633171542672 18.0583477476923271  9.2264274660354193   F   F   F
 15.0554306072542712 36.3851737959923369  9.2264274660354193   F   F   F
 51.6799695745542707 30.2762317798923348  9.2264274660354193   F   F   F
 21.7615060051542706 18.0583477476923271  9.2264274660354193   F   F   F
 28.2094773491542696 18.0583477476923271  9.2264274660354193   F   F   F
 34.6574486931542722 18.0583477476923271  9.2264274660354193   F   F   F
 41.1054200371542748 18.0583477476923271  9.2264274660354193   F   F   F
 47.5533913811542703 18.0583477476923271  9.2264274660354193   F   F   F
 54.0013627251542729 18.0583477476923271  9.2264274660354193   F   F   F
 10.9288524138542691 24.1672897637923327  9.2264274660354193   F   F   F
 17.3768237578542752 24.1672897637923327  9.2264274660354193   F   F   F
 23.8247951018542743 24.1672897637923327  9.2264274660354193   F   F   F
 58.1279409185542733 30.2762317798923348  9.2264274660354193   F   F   F
 30.2727664458542733 24.1672897637923327  9.2264274660354193   F   F   F
 43.1687091338542643 24.1672897637923327  9.2264274660354193   F   F   F
 49.6166804778542598 24.1672897637923327  9.2264274660354193   F   F   F
 56.0646518218542695 24.1672897637923327  9.2264274660354193   F   F   F
 12.9921415105542710 30.2762317798923348  9.2264274660354193   F   F   F
 19.4401128545542754 30.2762317798923348  9.2264274660354193   F   F   F
 25.8880841985542745 30.2762317798923348  9.2264274660354193   F   F   F
 32.3360555425542842 30.2762317798923348  9.2264274660354193   F   F   F
 38.7840268865542726 30.2762317798923348  9.2264274660354193   F   F   F
 45.2319982305542752 30.2762317798923348  9.2264274660354193   F   F   F
 36.7207377898542688 24.1672897637923327  9.2264274660354193   F   F   F
 13.4992234497169505  6.3452035977627013 23.8686266691512721   T   T   T
 64.3178082086542702 48.6030578281923340  9.2264274660354193   F   F   F
 57.8698368646542747 48.6030578281923340  9.2264274660354193   F   F   F
 52.4277592056257546 19.1321370546699825 13.7457805260363646   F   F   F
 10.8348231366089518  0.8044301091491445 11.8484909360338051   F   F   F
 17.2827944806089491  0.8044301091491445 11.8484909360338051   F   F   F
 23.7307658246089517  0.8044301091491445 11.8484909360338051   F   F   F
 30.1787371686089472  0.8044301091491445 11.8484909360338051   F   F   F
 36.6267085126089498  0.8044301091491445 11.8484909360338051   F   F   F
 43.0746798566089524  0.8044301091491445 11.8484909360338051   F   F   F
 49.5226512006089479  0.8044301091491445 11.8484909360338051   F   F   F
  6.4501408893089502  6.9133721252491451 11.8484909360338051   F   F   F
 12.8981122333089520  6.9133721252491451 11.8484909360338051   F   F   F
 19.3460835773089492  6.9133721252491451 11.8484909360338051   F   F   F
 25.7940549213089518  6.9133721252491451 11.8484909360338051   F   F   F
 32.2420262653089580  6.9133721252491451 11.8484909360338051   F   F   F
 38.6899976093089464  6.9133721252491451 11.8484909360338051   F   F   F
 45.1379689533089490  6.9133721252491451 11.8484909360338051   F   F   F
 51.5859402973089445  6.9133721252491451 11.8484909360338051   F   F   F
  8.5134299860089513 13.0223141413491454 11.8484909360338051   F   F   F
 14.9614013300089521 13.0223141413491454 11.8484909360338051   F   F   F
 21.4093726740089494 13.0223141413491454 11.8484909360338051   F   F   F
 27.8573440180089520 13.0223141413491454 11.8484909360338051   F   F   F
 34.3053153620089475 13.0223141413491454 11.8484909360338051   F   F   F
 40.7532867060089501 13.0223141413491454 11.8484909360338051   F   F   F
 47.2012580500089527 13.0223141413491454 11.8484909360338051   F   F   F
 53.6492293940089482 13.0223141413491454 11.8484909360338051   F   F   F
 10.5767190827089514 19.1312561574491475 11.8484909360338051   F   F   F
 17.0246904267089505 19.1312561574491475 11.8484909360338051   F   F   F
 23.4726617707089495 19.1312561574491475 11.8484909360338051   F   F   F
 29.9206331147089521 19.1312561574491475 11.8484909360338051   F   F   F
  4.3868517926089501  0.8044301091491445 11.8484909360338051   F   F   F
 36.3686044587089583 19.1312561574491475 11.8484909360338051   F   F   F
 60.6584003711851523 43.5345128295207076  9.7145333790886230   F   F   F
 47.7624576831851542 43.5345128295207076  9.7145333790886230   F   F   F
 15.7807050170851557 25.2076867812207048  9.7145333790886230   F   F   F
 22.2286763610851530 25.2076867812207048  9.7145333790886230   F   F   F
 28.6766477050851591 25.2076867812207048  9.7145333790886230   F   F   F
 35.1246190490851546 25.2076867812207048  9.7145333790886230   F   F   F
 41.5725903930851572 25.2076867812207048  9.7145333790886230   F   F   F
 48.0205617370851527 25.2076867812207048  9.7145333790886230   F   F   F
 54.4685330810851553 25.2076867812207048  9.7145333790886230   F   F   F
 11.3960227697851550 31.3166287973207034  9.7145333790886230   F   F   F
 17.8439941137851541 31.3166287973207034  9.7145333790886230   F   F   F
 24.2919654577851531 31.3166287973207034  9.7145333790886230   F   F   F
 30.7399368017851593 31.3166287973207034  9.7145333790886230   F   F   F
 37.1879081457851512 31.3166287973207034  9.7145333790886230   F   F   F
 43.6358794897851539 31.3166287973207034  9.7145333790886230   F   F   F
 54.2104290271851497 43.5345128295207076  9.7145333790886230   F   F   F
 50.0838508337851493 31.3166287973207034  9.7145333790886230   F   F   F
 13.4593118664851552 37.4255708134207055  9.7145333790886230   F   F   F
 19.9072832104851543 37.4255708134207055  9.7145333790886230   F   F   F
 26.3552545544851533 37.4255708134207055  9.7145333790886230   F   F   F
 32.8032258984851524 37.4255708134207055  9.7145333790886230   F   F   F
 39.2511972424851550 37.4255708134207055  9.7145333790886230   F   F   F
 45.6991685864851576 37.4255708134207055  9.7145333790886230   F   F   F
 52.1471399304851531 37.4255708134207055  9.7145333790886230   F   F   F
 58.5951112744851557 37.4255708134207055  9.7145333790886230   F   F   F
 15.5226009631851554 43.5345128295207076  9.7145333790886230   F   F   F
 21.9705723071851544 43.5345128295207076  9.7145333790886230   F   F   F
 28.4185436511851535 43.5345128295207076  9.7145333790886230   F   F   F
 34.8665149951851561 43.5345128295207076  9.7145333790886230   F   F   F
 41.3144863391851516 43.5345128295207076  9.7145333790886230   F   F   F
 56.5318221777851520 31.3166287973207034  9.7145333790886230   F   F   F
 42.8165758027089467 19.1312561574491475 11.8484909360338051   F   F   F
 49.2645471467089493 19.1312561574491475 11.8484909360338051   F   F   F
 55.7125184907089448 19.1312561574491475 11.8484909360338051   F   F   F
  8.5913229429598772  3.8716663013465920 15.6462197047971063   F   F   F
 15.0392942869598762  3.8716663013465920 15.6462197047971063   F   F   F
 21.4872656309598753  3.8716663013465920 15.6462197047971063   F   F   F
 27.9352369749598743  3.8716663013465920 15.6462197047971063   F   F   F
 34.3832083189598734  3.8716663013465920 15.6462197047971063   F   F   F
 40.8311796629598760  3.8716663013465920 15.6462197047971063   F   F   F
 47.2791510069598786  3.8716663013465920 15.6462197047971063   F   F   F
  4.2066406956598774  9.9806083174465918 15.6462197047971063   F   F   F
 10.6546120396598774  9.9806083174465918 15.6462197047971063   F   F   F
 17.1025833836598764  9.9806083174465918 15.6462197047971063   F   F   F
 23.5505547276598755  9.9806083174465918 15.6462197047971063   F   F   F
 29.9985260716598745  9.9806083174465918 15.6462197047971063   F   F   F
 36.4464974156598842  9.9806083174465918 15.6462197047971063   F   F   F
  2.1433515989598768  3.8716663013465920 15.6462197047971063   F   F   F
 42.8944687596598797  9.9806083174465918 15.6462197047971063   F   F   F
  6.2699297923598758 16.0895503335465868 15.6462197047971063   F   F   F
 12.7179011363598757 16.0895503335465868 15.6462197047971063   F   F   F
 19.1658724803598766 16.0895503335465868 15.6462197047971063   F   F   F
 25.6138438243598756 16.0895503335465868 15.6462197047971063   F   F   F
 32.0618151683598711 16.0895503335465868 15.6462197047971063   F   F   F
 38.5097865123598737 16.0895503335465868 15.6462197047971063   F   F   F
 44.9577578563598763 16.0895503335465868 15.6462197047971063   F   F   F
 51.4057292003598789 16.0895503335465868 15.6462197047971063   F   F   F
  8.3332188890598768 22.1984923496465925 15.6462197047971063   F   F   F
 14.7811902330598759 22.1984923496465925 15.6462197047971063   F   F   F
 21.2291615770598767 22.1984923496465925 15.6462197047971063   F   F   F
 27.6771329210598758 22.1984923496465925 15.6462197047971063   F   F   F
 34.1251042650598748 22.1984923496465925 15.6462197047971063   F   F   F
 49.3424401036598894  9.9806083174465918 15.6462197047971063   F   F   F
 63.9656748775089454 43.5670242218491452 11.8484909360338051   F   F   F
 57.5177035335089499 43.5670242218491452 11.8484909360338051   F   F   F
 51.0697321895089473 43.5670242218491452 11.8484909360338051   F   F   F
 12.6400081794089498 25.2401981735491425 11.8484909360338051   F   F   F
 19.0879795234089507 25.2401981735491425 11.8484909360338051   F   F   F
 25.5359508674089497 25.2401981735491425 11.8484909360338051   F   F   F
 31.9839222114089523 25.2401981735491425 11.8484909360338051   F   F   F
 38.4318935554089478 25.2401981735491425 11.8484909360338051   F   F   F
 44.8798648994089504 25.2401981735491425 11.8484909360338051   F   F   F
 51.3278362434089601 25.2401981735491425 11.8484909360338051   F   F   F
 57.7758075874089556 25.2401981735491425 11.8484909360338051   F   F   F
 14.7032972761089500 31.3491401896491446 11.8484909360338051   F   F   F
 21.1512686201089508 31.3491401896491446 11.8484909360338051   F   F   F
 27.5992399641089499 31.3491401896491446 11.8484909360338051   F   F   F
 34.0472113081089560 31.3491401896491446 11.8484909360338051   F   F   F
 40.4951826521089586 31.3491401896491446 11.8484909360338051   F   F   F
 46.9431539961089470 31.3491401896491446 11.8484909360338051   F   F   F
 53.3911253401089496 31.3491401896491446 11.8484909360338051   F   F   F
 59.8390966841089451 31.3491401896491446 11.8484909360338051   F   F   F
 16.7665863728089555 37.4580822057491361 11.8484909360338051   F   F   F
 23.2145577168089545 37.4580822057491361 11.8484909360338051   F   F   F
 29.6625290608089536 37.4580822057491361 11.8484909360338051   F   F   F
 36.1105004048089526 37.4580822057491361 11.8484909360338051   F   F   F
 42.5584717488089552 37.4580822057491361 11.8484909360338051   F   F   F
 49.0064430928089507 37.4580822057491361 11.8484909360338051   F   F   F
 55.4544144368089533 37.4580822057491361 11.8484909360338051   F   F   F
 61.9023857808089488 37.4580822057491361 11.8484909360338051   F   F   F
 18.8298754695089521 43.5670242218491452 11.8484909360338051   F   F   F
 25.2778468135089511 43.5670242218491452 11.8484909360338051   F   F   F
 31.7258181575089502 43.5670242218491452 11.8484909360338051   F   F   F
 38.1737895015089563 43.5670242218491452 11.8484909360338051   F   F   F
 44.6217608455089589 43.5670242218491452 11.8484909360338051   F   F   F
  9.3327336730851549 25.2076867812207048  9.7145333790886230   F   F   F
 52.4052439843851516 19.0987447651206992  9.7145333790886230   F   F   F
 45.9572726403851490 19.0987447651206992  9.7145333790886230   F   F   F
 39.5093012963851535 19.0987447651206992  9.7145333790886230   F   F   F
 12.4291146408916635  4.2493375604168673 21.5673741099633673   T   T   T
 18.2765578203657171  4.0983063657068000 21.1984306430863398   T   T   T
 24.7630516515525976  3.8751631059250462 21.2511128611940592   T   T   T
 31.2935245373466344  3.7679773489392847 21.2712259279553813   T   T   T
 37.3993853231792386  3.9892190425590313 21.2644635120492076   T   T   T
 43.4301963466207113  3.8561938969854164 21.4016620683256811   T   T   T
 50.8993091775221913  3.6795400160437080 20.9700088356582093   T   T   T
  7.6053700560682982 10.1803510501521686 21.1829197377245180   T   T   T
 14.0262773647714596  9.9755976590064162 21.2721346120720618   T   T   T
 20.1471275122349240  9.9664190642581048 21.3109860692827269   T   T   T
 26.9939908229255110  9.8575248125672967 21.1199557930492539   T   T   T
 33.4495067451986898  9.9725960662401629 21.3138516472809485   T   T   T
 39.6874400432623062 10.1720753969233435 21.2938575018638865   T   T   T
  5.3002928987710591  3.8889567730858294 21.3597605332969245   T   T   T
 46.3618362841815568  9.9405411803960586 21.2331771761511732   T   T   T
  9.4970767770162130 16.1742061007788962 21.2506562452184511   T   T   T
 15.9538086633998084 16.2318153419287583 21.2969479811041005   T   T   T
 22.6328237454513257 16.0504772617324747 21.2700159604719730   T   T   T
 29.1720665594229480 15.9943262730844502 21.2356870584007531   T   T   T
 35.3224704308950308 16.2425461552073536 20.8800659129380861   T   T   T
 41.8584855861409366 16.0515108869576970 21.3192699029421000   T   T   T
 48.3525484686091360 16.1620482124422047 21.2018884261684839   T   T   T
 54.7583629208584455 16.0827955006786176 21.1927101937176161   T   T   T
 11.4814101466862084 22.2437988248851504 21.2354973876856370   T   T   T
 18.0633716443806698 22.2959138740755343 21.2920907622816920   T   T   T
 24.4395433708515810 22.1086519499474541 21.3715166252717736   T   T   T
 31.5067448117433031 22.7257899093023070 21.4882015517042468   T   T   T
 37.4083618779994467 22.1491029003068576 21.2797648955964611   T   T   T
 52.6587989404279782  9.9292207199697149 21.1730544055694345   T   T   T
 43.8192009791765003 22.2850434932255652 21.2672498864828832   T   T   T
 60.7094398658376377 43.5418635300714740 17.5254423054545576   F   F   F
 47.8134971778376325 43.5418635300714740 17.5254423054545576   F   F   F
 15.8317445117376394 25.2150374817714820 17.5254423054545576   F   F   F
 22.2797158557376349 25.2150374817714820 17.5254423054545576   F   F   F
 28.7276871997376375 25.2150374817714820 17.5254423054545576   F   F   F
 35.1756585437376401 25.2150374817714820 17.5254423054545576   F   F   F
 41.6236298877376356 25.2150374817714820 17.5254423054545576   F   F   F
 48.0716012317376382 25.2150374817714820 17.5254423054545576   F   F   F
 54.5195725757376408 25.2150374817714820 17.5254423054545576   F   F   F
 11.4470622644376405 31.3239794978714841 17.5254423054545576   F   F   F
 17.8950336084376396 31.3239794978714841 17.5254423054545576   F   F   F
 24.3430049524376351 31.3239794978714841 17.5254423054545576   F   F   F
 30.7909762964376377 31.3239794978714841 17.5254423054545576   F   F   F
 37.2389476404376367 31.3239794978714841 17.5254423054545576   F   F   F
 43.6869189844376393 31.3239794978714841 17.5254423054545576   F   F   F
 54.2614685218376422 43.5418635300714740 17.5254423054545576   F   F   F
 50.1348903284376419 31.3239794978714841 17.5254423054545576   F   F   F
 13.5103513611376407 37.4329215139714861 17.5254423054545576   F   F   F
 19.9583227051376397 37.4329215139714861 17.5254423054545576   F   F   F
 26.4062940491376352 37.4329215139714861 17.5254423054545576   F   F   F
 32.8542653931376378 37.4329215139714861 17.5254423054545576   F   F   F
 39.3022367371376404 37.4329215139714861 17.5254423054545576   F   F   F
 45.7502080811376359 37.4329215139714861 17.5254423054545576   F   F   F
 52.1981794251376385 37.4329215139714861 17.5254423054545576   F   F   F
 58.6461507691376411 37.4329215139714861 17.5254423054545576   F   F   F
 15.5736404578376391 43.5418635300714740 17.5254423054545576   F   F   F
 22.0216118018376399 43.5418635300714740 17.5254423054545576   F   F   F
 28.4695831458376389 43.5418635300714740 17.5254423054545576   F   F   F
 34.9175544898376415 43.5418635300714740 17.5254423054545576   F   F   F
 41.3655258338376370 43.5418635300714740 17.5254423054545576   F   F   F
 56.5828616724376445 31.3239794978714841 17.5254423054545576   F   F   F
 40.5730756090598632 22.1984923496465925 15.6462197047971063   F   F   F
 50.3694032469929880 22.2380488645393761 21.2685656180711931   T   T   T
 14.0399577066167360 28.3160100466898719 21.4538934915209332   T   T   T
  7.5275486302851542  0.7719187168207011  9.7145333790886230   F   F   F
 13.9755199742851524  0.7719187168207011  9.7145333790886230   F   F   F
 20.4234913182851550  0.7719187168207011  9.7145333790886230   F   F   F
 26.8714626622851540  0.7719187168207011  9.7145333790886230   F   F   F
 33.3194340062851566  0.7719187168207011  9.7145333790886230   F   F   F
 39.7674053502851521  0.7719187168207011  9.7145333790886230   F   F   F
 46.2153766942851547  0.7719187168207011  9.7145333790886230   F   F   F
  3.1428663829851540  6.8808607329207012  9.7145333790886230   F   F   F
  9.5908377269851552  6.8808607329207012  9.7145333790886230   F   F   F
 16.0388090709851525  6.8808607329207012  9.7145333790886230   F   F   F
 22.4867804149851587  6.8808607329207012  9.7145333790886230   F   F   F
 28.9347517589851542  6.8808607329207012  9.7145333790886230   F   F   F
 35.3827231029851532  6.8808607329207012  9.7145333790886230   F   F   F
  1.0795772862851540  0.7719187168207011  9.7145333790886230   F   F   F
 41.8306944469851487  6.8808607329207012  9.7145333790886230   F   F   F
  5.2061554796851537 12.9898027490207006  9.7145333790886230   F   F   F
 11.6541268236851536 12.9898027490207006  9.7145333790886230   F   F   F
 18.1020981676851527 12.9898027490207006  9.7145333790886230   F   F   F
 24.5500695116851482 12.9898027490207006  9.7145333790886230   F   F   F
 30.9980408556851508 12.9898027490207006  9.7145333790886230   F   F   F
 37.4460121996851569 12.9898027490207006  9.7145333790886230   F   F   F
 43.8939835436851524 12.9898027490207006  9.7145333790886230   F   F   F
 50.3419548876851550 12.9898027490207006  9.7145333790886230   F   F   F
  7.2694445763851530 19.0987447651206992  9.7145333790886230   F   F   F
 13.7174159203851538 19.0987447651206992  9.7145333790886230   F   F   F
 20.1653872643851528 19.0987447651206992  9.7145333790886230   F   F   F
 26.6133586083851519 19.0987447651206992  9.7145333790886230   F   F   F
 33.0613299523851509 19.0987447651206992  9.7145333790886230   F   F   F
 48.2786657909851513  6.8808607329207012  9.7145333790886230   F   F   F
 56.7312572042326124 22.1781031573572491 21.3181291225080969   T   T   T
 65.2535011596337142 46.8943305589484893 21.5296744749286297   T   T   T
 52.4316918298169625 46.6679804545375916 21.3228606075359792   T   T   T
 20.0837359624822795 28.5273713040456443 21.2643262187453423   T   T   T
 26.5623897800690969 28.3435556156223925 21.1811369183488090   T   T   T
 33.0968659917854069 28.3478829523762741 21.2568395649650057   T   T   T
 39.4059295662806548 28.3951300080769222 21.1149410538292628   T   T   T
 46.0392558613397114 28.3078039977001445 21.3018435662654788   T   T   T
 52.5038025203412246 28.4169066971743760 21.1466193913127185   T   T   T
 58.7140428253795577 28.3169324036295187 21.2397901342066184   T   T   T
 15.7680063761997360 34.5920339126834051 21.1237647877289305   T   T   T
 22.2553678392854337 34.4423869586622331 21.2903375999702078   T   T   T
 28.7182409531177640 34.4514646054519531 21.2563960600802702   T   T   T
 35.3081096875214939 34.6413294977429800 21.2613591681267948   T   T   T
 41.5858941447519967 34.4416693492784844 21.2560074195920734   T   T   T
 48.1440449880669874 34.4753476272056787 21.2736305023604970   T   T   T
 58.4582219011228545 46.7563935073545238 21.1927393197833567   T   T   T
 54.4789267574343157 34.5184856349505083 21.1347186614027756   T   T   T
 17.9605810875914074 40.5444608646228275 21.2716020762606774   T   T   T
 24.4275875536579932 40.6271581008976952 21.0876334641517147   T   T   T
 30.6131402766692489 40.6579654691576167 21.1978025914366839   T   T   T
 37.5790386383964901 40.6914583936753331 21.7285409920976846   T   T   T
 43.2480913171962200 40.5928298424268448 21.3408362994715404   T   T   T
 50.1261425161771328 40.4017589399826349 21.2238255669463989   T   T   T
 56.3869771614267705 40.6551741298291347 21.1757384802188753   T   T   T
 62.9176307890216293 40.6017931186434069 21.3602383752746761   T   T   T
 19.8752609640163094 46.6758444901673784 21.3033234851058602   T   T   T
 26.4541440473156726 46.6772004319367326 21.1865315386521260   T   T   T
 32.8888568623186188 46.5220119597296673 21.3605305470024049   T   T   T
 39.3064072716529651 46.9261769853709438 21.1992154839546068   T   T   T
 45.7612684412194710 46.6158497529688560 21.2674317820655183   T   T   T
 61.0041383534377104 34.2966880594304939 21.3224835737262417   T   T   T
 47.0210469530598729 22.1984923496465925 15.6462197047971063   F   F   F
 53.4690182970598684 22.1984923496465925 15.6462197047971063   F   F   F
 10.3965079857598770 28.3074343657465910 15.6462197047971063   F   F   F
 33.0838451736257539 19.1321370546699825 13.7457805260363646   F   F   F
 26.6358738296257584 19.1321370546699825 13.7457805260363646   F   F   F
 20.1879024856257594 19.1321370546699825 13.7457805260363646   F   F   F
 13.7399311416257532 19.1321370546699825 13.7457805260363646   F   F   F
  7.2919597976257533 19.1321370546699825 13.7457805260363646   F   F   F
 50.3644701089257509 13.0231950385699840 13.7457805260363646   F   F   F
 43.9164987649257483 13.0231950385699840 13.7457805260363646   F   F   F
 37.4685274209257457 13.0231950385699840 13.7457805260363646   F   F   F
 31.0205560769257502 13.0231950385699840 13.7457805260363646   F   F   F
 24.5725847329257583 13.0231950385699840 13.7457805260363646   F   F   F
 18.1246133889257592 13.0231950385699840 13.7457805260363646   F   F   F
 11.6766420449257531 13.0231950385699840 13.7457805260363646   F   F   F
  5.2286707009257531 13.0231950385699840 13.7457805260363646   F   F   F
 39.5318165176257494 19.1321370546699825 13.7457805260363646   F   F   F
 48.3011810122257543  6.9142530224699872 13.7457805260363646   F   F   F
 35.4052383242257491  6.9142530224699872 13.7457805260363646   F   F   F
 28.9572669802257536  6.9142530224699872 13.7457805260363646   F   F   F
 16.0613242922257555  6.9142530224699872 13.7457805260363646   F   F   F
  9.6133529482257547  6.9142530224699872 13.7457805260363646   F   F   F
  3.1653816042257548  6.9142530224699872 13.7457805260363646   F   F   F
 46.2378919155257506  0.8053110063699869 13.7457805260363646   F   F   F
 39.7899205715257480  0.8053110063699869 13.7457805260363646   F   F   F
 33.3419492275257454  0.8053110063699869 13.7457805260363646   F   F   F
 26.8939778835257535  0.8053110063699869 13.7457805260363646   F   F   F
 20.4460065395257544  0.8053110063699869 13.7457805260363646   F   F   F
 13.9980351955257554  0.8053110063699869 13.7457805260363646   F   F   F
  7.5500638515257545  0.8053110063699869 13.7457805260363646   F   F   F
  1.1020925075257542  0.8053110063699869 13.7457805260363646   F   F   F
 41.8532096682257517  6.9142530224699872 13.7457805260363646   F   F   F
 64.8529222532811076 46.5944477486172062  9.9713439191545099   F   F   F
 61.5473197075836964 46.7809288553165388 23.0962981979877640   T   T   T
 49.1105344456879962 46.3371330754269195 23.1776178613427746   T   T   T
 17.0710577475090730 27.7759134942897461 23.1346485487592659   T   T   T
 23.2592065524348897 27.9342612598058615 23.2905277697224271   T   T   T
 29.5647775231981385 28.2690063005248540 23.0993003447607315   T   T   T
 37.2742438067954822 26.4621419177230877 24.2635401775883999   T   T   T
 42.3568656911048578 28.2232782246835789 23.0412439706945200   T   T   T
 49.4335296754137659 27.8111413891495438 23.1251804736357833   T   T   T
 56.5207993938416848 26.4310247173848829 24.3561105885848939   T   T   T
 12.8230249785195571 33.9220217433691644 23.2074785361461018   T   T   T
 18.6858290569973100 34.3228922881541578 23.1118208088559349   T   T   T
 25.4253413200451455 34.1195713681048929 23.1648678999400204   T   T   T
 31.8739113871253466 34.4036485771915963 22.9531351239622836   T   T   T
 38.3353308547468075 34.0177010882717141 23.1259539609554814   T   T   T
 44.6925572693082884 34.4461873748898739 23.1198452745391876   T   T   T
 55.4836685997908248 46.0776940612291739 23.2013102303449905   T   T   T
 51.4975298952739635 34.0018695076003041 23.1421737799556766   T   T   T
 14.6985718373987559 40.2787504952221482 23.1930503412346383   T   T   T
 21.1256719661658927 40.0123496568270838 23.2787376705958025   T   T   T
 27.6015136108956973 41.1130041555277188 23.4239555369045860   T   T   T
 33.8006587551212334 40.6035703072590550 22.7872085305428023   T   T   T
 39.1559502400021628 40.2170404396470360 22.9023620222480204   T   T   T
 46.5956487942413133 40.2082628727439442 23.1926191021746142   T   T   T
 54.2532088190718014 38.6735740339743685 24.2832091890832693   T   T   T
 59.3252766880957267 39.4873402298089431 21.3257272005810989   T   T   T
 16.5481064576199302 46.2800197525305137 23.2898895120054874   T   T   T
 23.1811217112730432 46.6204463913537808 23.1772387260667614   T   T   T
 29.4997744884373851 49.0771372829454364 22.8990200968756064   T   T   T
 36.2185098375974519 46.1055849888472125 23.0264034791674526   T   T   T
 42.2307538240938172 46.3877267966178124 23.3701110914808581   T   T   T
 57.3835125060815301 34.2582123284893854 23.1394914463358923   T   T   T
 10.4603642988889636 27.8659642847803823 23.0796263672738462   T   T   T
 58.4049509092811050 46.5944477486172062  9.9713439191545099   F   F   F
 45.5090082212811069 46.5944477486172062  9.9713439191545099   F   F   F
 30.8078804904811072 22.1586796842172156  9.9713439191545099   F   F   F
 24.3599091464811082 22.1586796842172156  9.9713439191545099   F   F   F
 17.9119378024811091 22.1586796842172156  9.9713439191545099   F   F   F
 11.4639664584811083 22.1586796842172156  9.9713439191545099   F   F   F
 54.5364767697811104 16.0497376681172170  9.9713439191545099   F   F   F
 48.0885054257811078 16.0497376681172170  9.9713439191545099   F   F   F
 41.6405340817811123 16.0497376681172170  9.9713439191545099   F   F   F
 35.1925627377811097 16.0497376681172170  9.9713439191545099   F   F   F
 28.7445913937811035 16.0497376681172170  9.9713439191545099   F   F   F
 22.2966200497811080 16.0497376681172170  9.9713439191545099   F   F   F
 15.8486487057811090 16.0497376681172170  9.9713439191545099   F   F   F
  9.4006773617811081 16.0497376681172170  9.9713439191545099   F   F   F
 52.4731876730811067  9.9407956520172149  9.9713439191545099   F   F   F
 37.2558518344811063 22.1586796842172156  9.9713439191545099   F   F   F
 46.0252163290811040  9.9407956520172149  9.9713439191545099   F   F   F
 33.1292736410811059  9.9407956520172149  9.9713439191545099   F   F   F
 26.6813022970811069  9.9407956520172149  9.9713439191545099   F   F   F
 20.2333309530811079  9.9407956520172149  9.9713439191545099   F   F   F
 13.7853596090811088  9.9407956520172149  9.9713439191545099   F   F   F
  7.3373882650811089  9.9407956520172149  9.9713439191545099   F   F   F
 50.4098985763811100  3.8318536359172146  9.9713439191545099   F   F   F
 43.9619272323811074  3.8318536359172146  9.9713439191545099   F   F   F
 37.5139558883811119  3.8318536359172146  9.9713439191545099   F   F   F
 31.0659845443811058  3.8318536359172146  9.9713439191545099   F   F   F
 24.6180132003811067  3.8318536359172146  9.9713439191545099   F   F   F
 18.1700418563811077  3.8318536359172146  9.9713439191545099   F   F   F
 11.7220705123811086  3.8318536359172146  9.9713439191545099   F   F   F
  5.2740991683811087  3.8318536359172146  9.9713439191545099   F   F   F
 39.5772449850811086  9.9407956520172149  9.9713439191545099   F   F   F
 51.9569795652811095 46.5944477486172062  9.9713439191545099   F   F   F
 43.7038231784811089 22.1586796842172156  9.9713439191545099   F   F   F
 56.5997658664811070 22.1586796842172156  9.9713439191545099   F   F   F
 39.0610368772811114 46.5944477486172062  9.9713439191545099   F   F   F
 32.6130655332811088 46.5944477486172062  9.9713439191545099   F   F   F
 26.1650941892811133 46.5944477486172062  9.9713439191545099   F   F   F
 19.7171228452811071 46.5944477486172062  9.9713439191545099   F   F   F
 62.7896331565811110 40.4855057325172112  9.9713439191545099   F   F   F
 56.3416618125811084 40.4855057325172112  9.9713439191545099   F   F   F
 49.8936904685811129 40.4855057325172112  9.9713439191545099   F   F   F
 43.4457191245811103 40.4855057325172112  9.9713439191545099   F   F   F
 36.9977477805811077 40.4855057325172112  9.9713439191545099   F   F   F
 30.5497764365811086 40.4855057325172112  9.9713439191545099   F   F   F
 24.1018050925811131 40.4855057325172112  9.9713439191545099   F   F   F
 17.6538337485811070 40.4855057325172112  9.9713439191545099   F   F   F
 60.7263440598811073 34.3765637164172162  9.9713439191545099   F   F   F
 50.1517945224811044 22.1586796842172156  9.9713439191545099   F   F   F
 54.2783727158811047 34.3765637164172162  9.9713439191545099   F   F   F
 41.3824300278811066 34.3765637164172162  9.9713439191545099   F   F   F
 34.9344586838811111 34.3765637164172162  9.9713439191545099   F   F   F
 28.4864873398811085 34.3765637164172162  9.9713439191545099   F   F   F
 22.0385159958811094 34.3765637164172162  9.9713439191545099   F   F   F
 15.5905446518811086 34.3765637164172162  9.9713439191545099   F   F   F
 58.6630549631811178 28.2676217003172141  9.9713439191545099   F   F   F
 52.2150836191811081 28.2676217003172141  9.9713439191545099   F   F   F
 45.7671122751811126 28.2676217003172141  9.9713439191545099   F   F   F
 39.3191409311811171 28.2676217003172141  9.9713439191545099   F   F   F
 32.8711695871811074 28.2676217003172141  9.9713439191545099   F   F   F
 26.4231982431811083 28.2676217003172141  9.9713439191545099   F   F   F
 19.9752268991811093 28.2676217003172141  9.9713439191545099   F   F   F
 13.5272555551811084 28.2676217003172141  9.9713439191545099   F   F   F
 47.8304013718811092 34.3765637164172162  9.9713439191545099   F   F   F
  9.3837731677376404 25.2150374817714820 17.5254423054545576   F   F   F
 53.2292768025305207 21.9107195590076920 23.2425303166724646   T   T   T
 40.4068539798607844 22.1019013394668384 23.0294776746606757   T   T   T
 10.9012154059530904  0.8684805212603095 19.2241540042367660   T   T   T
 17.2308828734958901  0.8604523851538699 19.3450567154124293   T   T   T
 23.5400396861491856  0.8400605997866104 19.4788562582395812   T   T   T
 30.1702470082937779  0.7991995303972165 19.3959497170335524   T   T   T
 36.5718797390744683  0.8693861371389515 19.4004101833989573   T   T   T
 42.9360579187693148  0.8525191520536862 19.4338507919280659   T   T   T
 49.4291321981836518  0.9394409592876728 19.2983601369521907   T   T   T
  6.4494731189795367  6.9762872540755918 19.3753334050755335   T   T   T
 12.8860475205533973  6.9845273800976493 19.3855342428167283   T   T   T
 19.2558995910878892  6.9424902640102379 19.4557818747151288   T   T   T
 25.7862301303286294  6.9483763954741411 19.2968045493623563   T   T   T
 32.3132907243142284  6.8876855032421958 19.3729462447681833   T   T   T
 38.6919515937467438  7.0350791024545893 19.2856160420754854   T   T   T
  4.3535562503260330  0.7128443744013642 19.4745490341605603   T   T   T
 44.9549540586966287  6.8488031335288895 19.5252854710683081   T   T   T
  8.5427726330252671 13.0454620490777913 19.3953843913353126   T   T   T
 14.9285448400099767 13.0591987827416709 19.4127884786619163   T   T   T
 21.3835503175316930 13.0441805535809099 19.4207867621891772   T   T   T
 28.0216592699902023 12.9676751804274559 19.3355672848299953   T   T   T
 34.2580564614013170 13.1787516989334357 19.2016103942916878   T   T   T
 40.6271192068662685 13.0323337471173986 19.4992427340634329   T   T   T
 47.2148764925285818 13.0211447406679799 19.3849668990442154   T   T   T
 53.6566889006174392 12.9745923937395222 19.4208785128719370   T   T   T
 10.5089603250239509 19.1959233198256740 19.4272072573948229   T   T   T
 16.9882552636209887 19.1859938183909904 19.4077821486194360   T   T   T
 23.5307923458669208 19.1003139817993279 19.4063361532702352   T   T   T
 29.8987727450251306 19.2621673175473589 19.2019714565387751   T   T   T
 36.3894426699323859 19.1280674129560140 19.3940853085845148   T   T   T
 51.6366045893722614  6.8984883277929132 19.3432548940424311   T   T   T
 42.8081913578541347 19.1259923361579496 19.4109948353847521   T   T   T
 61.7221746838598690 46.6342604140465937 15.6462197047971063   F   F   F
 48.8262319958598638 46.6342604140465937 15.6462197047971063   F   F   F
 16.8444793297598778 28.3074343657465910 15.6462197047971063   F   F   F
 23.2924506737598769 28.3074343657465910 15.6462197047971063   F   F   F
 29.7404220177598759 28.3074343657465910 15.6462197047971063   F   F   F
 36.1883933617598714 28.3074343657465910 15.6462197047971063   F   F   F
 42.6363647057598740 28.3074343657465910 15.6462197047971063   F   F   F
 49.0843360497598766 28.3074343657465910 15.6462197047971063   F   F   F
 55.5323073937598792 28.3074343657465910 15.6462197047971063   F   F   F
 12.4597970824598754 34.4163763818465895 15.6462197047971063   F   F   F
 18.9077684264598744 34.4163763818465895 15.6462197047971063   F   F   F
 25.3557397704598735 34.4163763818465895 15.6462197047971063   F   F   F
 31.8037111144598725 34.4163763818465895 15.6462197047971063   F   F   F
 38.2516824584598751 34.4163763818465895 15.6462197047971063   F   F   F
 44.6996538024598706 34.4163763818465895 15.6462197047971063   F   F   F
 55.2742033398598736 46.6342604140465937 15.6462197047971063   F   F   F
 51.1476251464598732 34.4163763818465895 15.6462197047971063   F   F   F
 14.5230861791598755 40.5253183979465845 15.6462197047971063   F   F   F
 20.9710575231598746 40.5253183979465845 15.6462197047971063   F   F   F
 27.4190288671598736 40.5253183979465845 15.6462197047971063   F   F   F
 33.8670002111598762 40.5253183979465845 15.6462197047971063   F   F   F
 40.3149715551598717 40.5253183979465845 15.6462197047971063   F   F   F
 46.7629428991598743 40.5253183979465845 15.6462197047971063   F   F   F
 53.2109142431598769 40.5253183979465845 15.6462197047971063   F   F   F
 59.6588855871598795 40.5253183979465845 15.6462197047971063   F   F   F
 16.5863752758598793 46.6342604140465937 15.6462197047971063   F   F   F
 23.0343466198598783 46.6342604140465937 15.6462197047971063   F   F   F
 29.4823179638598774 46.6342604140465937 15.6462197047971063   F   F   F
 35.9302893078598728 46.6342604140465937 15.6462197047971063   F   F   F
 42.3782606518598755 46.6342604140465937 15.6462197047971063   F   F   F
 57.5955964904598758 34.4163763818465895 15.6462197047971063   F   F   F
 47.0075862353384863 21.9134065141854393 23.2612420584167161   T   T   T
 49.2906830539156005 19.1347254562016644 19.3937754081182447   T   T   T
 12.6312699648395910 25.2625631474917576 19.2864326955783554   T   T   T
  8.7719647432236130  3.7332657567072696 22.8760631964215477   T   T   T
 15.3513258483991777  3.3413760643640713 23.2840148553704047   T   T   T
 21.2677355315504570  3.6575479965582645 23.3612214975754959   T   T   T
 27.7028471595409371  3.5380664760072431 23.2277362353167085   T   T   T
 35.4179157258673811  2.5565498380181992 23.6050279820675080   T   T   T
 39.2740256187712760  2.2764738283608899 22.2042503581764663   T   T   T
 46.9216081708056905  3.3416053496322444 21.0075365753045915   T   T   T
  4.2435667405606114  8.9985800056705845 23.2677756345650550   T   T   T
 10.5261936651611041  9.8317272903240536 23.2052384260686573   T   T   T
 16.8012066334467605 10.1001697689388870 23.7495288644182914   T   T   T
 23.4433995464756073  9.5970316753241764 23.1915811790849062   T   T   T
 30.0700291823573984  9.8503037565571230 23.0298142729959352   T   T   T
 36.6694271873396502  9.4771683724528533 23.0971976478612611   T   T   T
  0.6373885261887371  2.6392760788589662 22.1315216459228168   T   T   T
 42.9815261568385765  9.8150014984144303 23.1851967630868501   T   T   T
  6.0470992741926901 15.8720663829660378 23.2849496447255397   T   T   T
 12.4465471573355497 16.3083742041906454 23.2698168679876680   T   T   T
 19.1160356500226527 15.7346494889213346 23.3452812111416961   T   T   T
 25.9581257715016740 15.5966459404054749 23.1663640835716471   T   T   T
 32.3825264206826802 15.6657245211802518 22.8702254311939548   T   T   T
 38.0995228523124467 15.9343214044444679 23.0991936538790164   T   T   T
 45.7548499562251152 16.2848333881401004 24.1062618682185246   T   T   T
 51.6271705194082529 15.5562102544311873 23.1372995365237202   T   T   T
  8.7612673287668912 21.4014012247319982 23.0134882345521099   T   T   T
 14.5439157847141836 22.1713111750669967 23.0594213142393301   T   T   T
 21.0159240370836002 21.8126851769049459 23.2536415913538228   T   T   T
 28.0084551611565580 21.7185515595954435 23.0267549178389999   T   T   T
 34.3257749524178521 21.7134923354802076 23.2081588920185773   T   T   T
 49.5816823226890619  9.2891836367085254 23.0613598757250209   T   T   T
 55.6189539739065282 19.1560476323539532 19.4394865692018612   T   T   T
 63.7784813973105287 43.5402089615851295 19.4311992109285612   T   T   T
 51.1582939788428916 43.5533786523752369 19.3672186368185990   T   T   T
 19.1250345942325879 25.3325057640049955 19.2850424386200849   T   T   T
 25.2943984523287639 25.2043987965104144 19.5361907649761868   T   T   T
 32.0495738126410288 25.3646800229055671 19.3218043194611582   T   T   T
 38.3104489607988086 25.2107904686279092 19.4790018070256323   T   T   T
 44.9188062816900242 25.2369382632443440 19.4244425913130563   T   T   T
 51.3569595900521065 25.3631272982659048 19.2799186166813854   T   T   T
 57.5826105455916917 25.1878790226865199 19.5286313479316540   T   T   T
 14.7555995088485030 31.4098926216897425 19.2984926593445678   T   T   T
 21.0113044366071868 31.3719462197727772 19.4979856409767898   T   T   T
 27.6053710464381155 31.3710955753173941 19.3870604366496551   T   T   T
 34.0599131927748431 31.3892372587967330 19.3846699586081392   T   T   T
 40.5305692172410943 31.3172343722364772 19.3910963537236256   T   T   T
 47.0181329355976629 31.3341540890095693 19.3848441225653048   T   T   T
 57.5759432912275386 43.5845214651187902 19.2924398896585316   T   T   T
 53.4247879143176760 31.4117079737430345 19.2870488677865382   T   T   T
 16.7832793231568616 37.4876532931665380 19.3895845851996995   T   T   T
 23.2181921739720103 37.5543423854271623 19.2960209482522593   T   T   T
 29.6527304147591693 37.4356094429313870 19.4052124063616631   T   T   T
 36.0340575434276857 37.6112729510917276 19.2629611450461731   T   T   T
 42.5042002220874693 37.4176233832326375 19.4508582976228404   T   T   T
 49.0163989250599172 37.5129084753491853 19.3621894061641768   T   T   T
 55.4232340142747049 37.5073473956508323 19.4149268106193489   T   T   T
 61.9210686785352067 37.4257663818381374 19.4083945509797751   T   T   T
 18.8572335141518224 43.5885907445696574 19.3930337878160763   T   T   T
 25.2745240100898094 43.5973827794927047 19.3965731866618469   T   T   T
 31.7747319232628200 43.5898527458448513 19.4076200686338929   T   T   T
 38.2015611811397022 43.6710969462628285 19.3009731685600059   T   T   T
 44.4705378935296451 43.5847295971807114 19.4961006843452083   T   T   T
 59.7367044800925981 31.3380823104871311 19.4955809051926359   T   T   T
 45.9797878616257520 19.1321370546699825 13.7457805260363646   F   F   F
 52.4562834790376442 19.1060954656714834 17.5254423054545576   F   F   F
 39.5603407910376390 19.1060954656714834 17.5254423054545576   F   F   F
  2.1709232311185183  3.8661109027844298 11.9109239597412113   F   F   F
  8.6188945751185191  3.8661109027844298 11.9109239597412113   F   F   F
 15.0668659191185181  3.8661109027844298 11.9109239597412113   F   F   F
 21.5148372631185190  3.8661109027844298 11.9109239597412113   F   F   F
 27.9628086071185180  3.8661109027844298 11.9109239597412113   F   F   F
 34.4107799511185206  3.8661109027844298 11.9109239597412113   F   F   F
 40.8587512951185161  3.8661109027844298 11.9109239597412113   F   F   F
 47.3067226391185187  3.8661109027844298 11.9109239597412113   F   F   F
  4.2342123278185184  9.9750529188844315 11.9109239597412113   F   F   F
 10.6821836718185192  9.9750529188844315 11.9109239597412113   F   F   F
 17.1301550158185201  9.9750529188844315 11.9109239597412113   F   F   F
 23.5781263598185191  9.9750529188844315 11.9109239597412113   F   F   F
 30.0260977038185182  9.9750529188844315 11.9109239597412113   F   F   F
 60.2614103742530389 43.7292727825617575 21.3016843921008601   T   T   T
 36.4740690478185172  9.9750529188844315 11.9109239597412113   F   F   F
 49.3700117358185153  9.9750529188844315 11.9109239597412113   F   F   F
  6.2975014245185186 16.0839949349844318 11.9109239597412113   F   F   F
 12.7454727685185194 16.0839949349844318 11.9109239597412113   F   F   F
 19.1934441125185202 16.0839949349844318 11.9109239597412113   F   F   F
 25.6414154565185193 16.0839949349844318 11.9109239597412113   F   F   F
 32.0893868005185183 16.0839949349844318 11.9109239597412113   F   F   F
 38.5373581445185209 16.0839949349844318 11.9109239597412113   F   F   F
 44.9853294885185164 16.0839949349844318 11.9109239597412113   F   F   F
 51.4333008325185190 16.0839949349844318 11.9109239597412113   F   F   F
  8.3607905212185187 22.1929369510844303 11.9109239597412113   F   F   F
 14.8087618652185196 22.1929369510844303 11.9109239597412113   F   F   F
 21.2567332092185239 22.1929369510844303 11.9109239597412113   F   F   F
 27.7047045532185265 22.1929369510844303 11.9109239597412113   F   F   F
 42.9220403918185127  9.9750529188844315 11.9109239597412113   F   F   F
 34.1526758972185149 22.1929369510844303 11.9109239597412113   F   F   F
 54.3807407993206056 43.3574750136320120 21.3033621062030392   T   T   T
 40.9257039323653586 43.8478882492258109 21.1309731276225037   T   T   T
  9.3165736779654935 25.1144957700228382 21.1990232017744447   T   T   T
 16.0045617168671370 25.1654235407914442 21.1884935901441267   T   T   T
 21.8190840338268082 25.3520761326524493 21.2893896414061743   T   T   T
 28.7361327105046733 25.3355142323179692 21.0287574362338674   T   T   T
 34.9433420589883283 24.9164400295790678 21.3881668406681165   T   T   T
 41.4162541437435081 25.3082648044880969 21.2498899712632507   T   T   T
 48.3883223773245916 25.1306311083338976 21.1573856030866558   T   T   T
 54.1306045076764377 25.3580580623153580 21.2268797723125928   T   T   T
 11.8707966231471662 31.1911382254406604 21.1198706472217523   T   T   T
 17.4937171856441154 31.4774808766899774 21.2291860993287145   T   T   T
 24.3782022471124691 31.2537548210351090 21.1452567704729226   T   T   T
 30.8026514968774450 31.3940444356231083 21.2530717027318481   T   T   T
 37.1723143271333001 31.1987749085581676 21.2830295306640060   T   T   T
 47.9805381789868477 43.5033370750897959 21.1131224591283271   T   T   T
 43.7643902917683576 31.3331444719239656 21.2429799172023408   T   T   T
 56.1379672804392200 31.4016671214317995 21.2365992609631924   T   T   T
 13.5260276888977149 37.4123648746130826 21.2386151166187531   T   T   T
 20.0255152100034906 37.3714153772810604 21.2532507632338508   T   T   T
 25.5955194364788170 37.3117502258077991 21.6271687100723362   T   T   T
 32.6682644371523452 37.6322050492193370 21.2139012193659298   T   T   T
 38.8342442805089192 37.1950796971220115 21.1938647936675117   T   T   T
 45.7890117369443388 37.5099940708291513 21.0969417806728572   T   T   T
 52.1543732959345192 37.5209523968565364 21.2079242625326181   T   T   T
 58.6823469973940703 37.5571180284634210 21.2029920559523468   T   T   T
 15.5783346734245303 43.5030666273871773 21.0862972948764167   T   T   T
 22.0428549586690004 43.5835442024205975 21.2532022726362158   T   T   T
 27.1739953513885339 42.5697673622224997 22.1449481007729041   T   T   T
 35.1961248261343584 43.4568978368786603 21.1793180867478803   T   T   T
 50.3264550474699348 31.2644140785430373 21.2926681065783470   T   T   T
 52.4985725781505863 19.0067933455644997 21.2001814954927426   T   T   T
 40.6006472412185175 22.1929369510844303 11.9109239597412113   F   F   F
 53.4965899292185156 22.1929369510844303 11.9109239597412113   F   F   F
  4.3546022594985310  0.7792694173714815 15.6670670430993493   F   F   F
 10.8025736034985300  0.7792694173714815 15.6670670430993493   F   F   F
 17.2505449474985255  0.7792694173714815 15.6670670430993493   F   F   F
 23.6985162914985281  0.7792694173714815 15.6670670430993493   F   F   F
 30.1464876354985272  0.7792694173714815 15.6670670430993493   F   F   F
 36.5944589794985262  0.7792694173714815 15.6670670430993493   F   F   F
 43.0424303234985288  0.7792694173714815 15.6670670430993493   F   F   F
 49.4904016674985243  0.7792694173714815 15.6670670430993493   F   F   F
  6.4178913561985311  6.8882114334714828 15.6670670430993493   F   F   F
 12.8658627001985302  6.8882114334714828 15.6670670430993493   F   F   F
 19.3138340441985257  6.8882114334714828 15.6670670430993493   F   F   F
 25.7618053881985283  6.8882114334714828 15.6670670430993493   F   F   F
 32.2097767321985202  6.8882114334714828 15.6670670430993493   F   F   F
 61.7497463160185163 46.6287050154844351 11.9109239597412113   F   F   F
 38.6577480761985299  6.8882114334714828 15.6670670430993493   F   F   F
 51.5536907641985280  6.8882114334714828 15.6670670430993493   F   F   F
  8.4811804528985313 12.9971534495714813 15.6670670430993493   F   F   F
 14.9291517968985303 12.9971534495714813 15.6670670430993493   F   F   F
 21.3771231408985258 12.9971534495714813 15.6670670430993493   F   F   F
 27.8250944848985284 12.9971534495714813 15.6670670430993493   F   F   F
 34.2730658288985381 12.9971534495714813 15.6670670430993493   F   F   F
 40.7210371728985265 12.9971534495714813 15.6670670430993493   F   F   F
 47.1690085168985291 12.9971534495714813 15.6670670430993493   F   F   F
 53.6169798608985246 12.9971534495714813 15.6670670430993493   F   F   F
 10.5444695495985314 19.1060954656714834 15.6670670430993493   F   F   F
 16.9924408935985305 19.1060954656714834 15.6670670430993493   F   F   F
 23.4404122375985260 19.1060954656714834 15.6670670430993493   F   F   F
 29.8883835815985286 19.1060954656714834 15.6670670430993493   F   F   F
 45.1057194201985325  6.8882114334714828 15.6670670430993493   F   F   F
 47.0486185852185130 22.1929369510844303 11.9109239597412113   F   F   F
 55.3017749720185066 46.6287050154844351 11.9109239597412113   F   F   F
 42.4058322840185156 46.6287050154844351 11.9109239597412113   F   F   F
 10.4240796179185189 28.3018789671844324 11.9109239597412113   F   F   F
 16.8720509619185215 28.3018789671844324 11.9109239597412113   F   F   F
 23.3200223059185205 28.3018789671844324 11.9109239597412113   F   F   F
 29.7679936499185196 28.3018789671844324 11.9109239597412113   F   F   F
 36.2159649939185186 28.3018789671844324 11.9109239597412113   F   F   F
 42.6639363379185212 28.3018789671844324 11.9109239597412113   F   F   F
 49.1119076819185167 28.3018789671844324 11.9109239597412113   F   F   F
 55.5598790259185193 28.3018789671844324 11.9109239597412113   F   F   F
 12.4873687146185173 34.4108209832844238 11.9109239597412113   F   F   F
 18.9353400586185217 34.4108209832844238 11.9109239597412113   F   F   F
 25.3833114026185243 34.4108209832844238 11.9109239597412113   F   F   F
 31.8312827466185233 34.4108209832844238 11.9109239597412113   F   F   F
 38.2792540906185152 34.4108209832844238 11.9109239597412113   F   F   F
 48.8538036280185111 46.6287050154844351 11.9109239597412113   F   F   F
 44.7272254346185179 34.4108209832844238 11.9109239597412113   F   F   F
 57.6231681226185160 34.4108209832844238 11.9109239597412113   F   F   F
 14.5506578113185192 40.5197629993844330 11.9109239597412113   F   F   F
 20.9986291553185218 40.5197629993844330 11.9109239597412113   F   F   F
 27.4466004993185209 40.5197629993844330 11.9109239597412113   F   F   F
 33.8945718433185164 40.5197629993844330 11.9109239597412113   F   F   F
 40.3425431873185190 40.5197629993844330 11.9109239597412113   F   F   F
 46.7905145313185216 40.5197629993844330 11.9109239597412113   F   F   F
 53.2384858753185171 40.5197629993844330 11.9109239597412113   F   F   F
 59.6864572193185197 40.5197629993844330 11.9109239597412113   F   F   F
 16.6139469080185194 46.6287050154844351 11.9109239597412113   F   F   F
 23.0619182520185220 46.6287050154844351 11.9109239597412113   F   F   F
 29.5098895960185210 46.6287050154844351 11.9109239597412113   F   F   F
 35.9578609400185201 46.6287050154844351 11.9109239597412113   F   F   F
 51.1751967786185133 34.4108209832844238 11.9109239597412113   F   F   F
 36.3363549255985276 19.1060954656714834 15.6670670430993493   F   F   F
 45.9573220206378892 19.1013123984820972 21.1933780363153375   T   T   T
 32.5066996688835914 19.1148137448428095 21.3423553317681076   T   T   T
  5.3673371742403218  3.8716663013465920 17.5462896789491865   F   F   F
 11.8153085182403217  3.8716663013465920 17.5462896789491865   F   F   F
 18.2632798622403207  3.8716663013465920 17.5462896789491865   F   F   F
 24.7112512062403198  3.8716663013465920 17.5462896789491865   F   F   F
 31.1592225502403188  3.8716663013465920 17.5462896789491865   F   F   F
 37.6071938942403179  3.8716663013465920 17.5462896789491865   F   F   F
 44.0551652382403205  3.8716663013465920 17.5462896789491865   F   F   F
 50.5031365822403231  3.8716663013465920 17.5462896789491865   F   F   F
  7.4306262709403219  9.9806083174465918 17.5462896789491865   F   F   F
 13.8785976149403218  9.9806083174465918 17.5462896789491865   F   F   F
 20.3265689589403209  9.9806083174465918 17.5462896789491865   F   F   F
 26.7745403029403199  9.9806083174465918 17.5462896789491865   F   F   F
 33.2225116469403190  9.9806083174465918 17.5462896789491865   F   F   F
 60.6809155924257553 43.5679051190699909 13.7457805260363646   F   F   F
 39.6704829909403216  9.9806083174465918 17.5462896789491865   F   F   F
 52.5664256789403268  9.9806083174465918 17.5462896789491865   F   F   F
  9.4939153676403212 16.0895503335465868 17.5462896789491865   F   F   F
 15.9418867116403202 16.0895503335465868 17.5462896789491865   F   F   F
 22.3898580556403211 16.0895503335465868 17.5462896789491865   F   F   F
 28.8378293996403201 16.0895503335465868 17.5462896789491865   F   F   F
 35.2858007436403156 16.0895503335465868 17.5462896789491865   F   F   F
 41.7337720876403182 16.0895503335465868 17.5462896789491865   F   F   F
 48.1817434316403208 16.0895503335465868 17.5462896789491865   F   F   F
 54.6297147756403234 16.0895503335465868 17.5462896789491865   F   F   F
 11.5572044643403213 22.1984923496465925 17.5462896789491865   F   F   F
 18.0051758083403222 22.1984923496465925 17.5462896789491865   F   F   F
 24.4531471523403212 22.1984923496465925 17.5462896789491865   F   F   F
 30.9011184963403203 22.1984923496465925 17.5462896789491865   F   F   F
 46.1184543349403313  9.9806083174465918 17.5462896789491865   F   F   F
 37.3490898403403193 22.1984923496465925 17.5462896789491865   F   F   F
 54.2329442484257527 43.5679051190699909 13.7457805260363646   F   F   F
 41.3370015604257546 43.5679051190699909 13.7457805260363646   F   F   F
  9.3552488943257543 25.2410790707699881 13.7457805260363646   F   F   F
 15.8032202383257552 25.2410790707699881 13.7457805260363646   F   F   F
 22.2511915823257596 25.2410790707699881 13.7457805260363646   F   F   F
 28.6991629263257622 25.2410790707699881 13.7457805260363646   F   F   F
 35.1471342703257505 25.2410790707699881 13.7457805260363646   F   F   F
 41.5951056143257460 25.2410790707699881 13.7457805260363646   F   F   F
 48.0430769583257486 25.2410790707699881 13.7457805260363646   F   F   F
 54.4910483023257513 25.2410790707699881 13.7457805260363646   F   F   F
 11.4185379910257545 31.3500210868699867 13.7457805260363646   F   F   F
 17.8665093350257536 31.3500210868699867 13.7457805260363646   F   F   F
 24.3144806790257597 31.3500210868699867 13.7457805260363646   F   F   F
 30.7624520230257623 31.3500210868699867 13.7457805260363646   F   F   F
 37.2104233670257543 31.3500210868699867 13.7457805260363646   F   F   F
 47.7849729044257501 43.5679051190699909 13.7457805260363646   F   F   F
 43.6583947110257498 31.3500210868699867 13.7457805260363646   F   F   F
 56.5543373990257550 31.3500210868699867 13.7457805260363646   F   F   F
 13.4818270877257547 37.4589631029699888 13.7457805260363646   F   F   F
 19.9297984317257537 37.4589631029699888 13.7457805260363646   F   F   F
 26.3777697757257599 37.4589631029699888 13.7457805260363646   F   F   F
 32.8257411197257625 37.4589631029699888 13.7457805260363646   F   F   F
 39.2737124637257509 37.4589631029699888 13.7457805260363646   F   F   F
 45.7216838077257464 37.4589631029699888 13.7457805260363646   F   F   F
 52.1696551517257490 37.4589631029699888 13.7457805260363646   F   F   F
 58.6176264957257516 37.4589631029699888 13.7457805260363646   F   F   F
 15.5451161844257548 43.5679051190699909 13.7457805260363646   F   F   F
 21.9930875284257539 43.5679051190699909 13.7457805260363646   F   F   F
 28.4410588724257600 43.5679051190699909 13.7457805260363646   F   F   F
 34.8890302164257520 43.5679051190699909 13.7457805260363646   F   F   F
 50.1063660550257524 31.3500210868699867 13.7457805260363646   F   F   F
 39.4990000499047653 19.1865427939771287 21.1972211992699080   T   T   T
 43.7970611843403148 22.1984923496465925 17.5462896789491865   F   F   F
 56.6930038723403200 22.1984923496465925 17.5462896789491865   F   F   F
  0.6405359674757014  0.5535279019691423 21.3637943721935954   T   T   T
  7.7533244847675258  0.8130825887955504 21.1165577195944003   T   T   T
 14.1492620177805399  0.6782493968145044 21.1811189382625074   T   T   T
 19.9240851732782396  1.0150737256173166 21.2334480561503014   T   T   T
 26.8232119979112227  0.6279167086940519 21.1641344029254128   T   T   T
 33.2743386827195238  0.8533956777128040 21.1027524790552583   T   T   T
 39.3484373630296389  0.3733787804217589 21.4199772426212505   T   T   T
 46.0711359859682403  0.8806628866644061 20.9674886409956578   T   T   T
  2.3764887317837942  5.8212126551566019 21.6969422121016855   T   T   T
  9.5658989391677878  6.9599158418770681 21.2357501519354379   T   T   T
 15.5991928242845361  6.7304771702178989 21.4418328603683079   T   T   T
 22.6439789301498386  6.7916217356479880 21.1547574317923512   T   T   T
 29.1229708374049530  6.8218852725573438 21.0268558657071978   T   T   T
 64.9461602591403278 46.6342604140465937 17.5462896789491865   F   F   F
 35.5591847675669825  6.7735426656257838 21.2798273746221120   T   T   T
 48.4224447313552844  6.6973578630450641 21.2031764587139300   T   T   T
  5.3519543736337427 13.0097074963296198 21.2496576128893295   T   T   T
 11.7662421202268206 13.1202031063089528 21.1535600258209264   T   T   T
 18.0062899663422442 13.0471525781910280 21.1794732871232974   T   T   T
 24.9645300764236815 12.8809958986580853 21.0092819619471172   T   T   T
 31.3367785990099286 12.9070367633723411 21.1852917003442087   T   T   T
 37.0227087639312913 13.1381260593086573 21.1420533382631355   T   T   T
 44.0096200927997501 12.9770362978943119 21.1262240711531604   T   T   T
 50.1765919122148034 12.9141737267688761 21.3693873218438384   T   T   T
  7.0741804947833087 19.0702183760029946 21.0765494468452808   T   T   T
 13.6675237285242215 19.2614332463993456 21.1404195340543488   T   T   T
 20.1713571686134614 19.0326327549337577 21.1472408937667176   T   T   T
 26.9284175922115026 18.8940998938156248 21.1958123535670317   T   T   T
 41.4069809284702828  7.0407902015651960 21.2794808785979228   T   T   T
 50.2450325283403103 22.1984923496465925 17.5462896789491865   F   F   F
 58.4981889151403109 46.6342604140465937 17.5462896789491865   F   F   F
 45.6022462271403199 46.6342604140465937 17.5462896789491865   F   F   F
 13.6204935610403215 28.3074343657465910 17.5462896789491865   F   F   F
 20.0684649050403223 28.3074343657465910 17.5462896789491865   F   F   F
 26.5164362490403214 28.3074343657465910 17.5462896789491865   F   F   F
 32.9644075930403204 28.3074343657465910 17.5462896789491865   F   F   F
 39.4123789370403159 28.3074343657465910 17.5462896789491865   F   F   F
 45.8603502810403185 28.3074343657465910 17.5462896789491865   F   F   F
 52.3083216250403211 28.3074343657465910 17.5462896789491865   F   F   F
 58.7562929690403237 28.3074343657465910 17.5462896789491865   F   F   F
 15.6837826577403199 34.4163763818465895 17.5462896789491865   F   F   F
 22.1317540017403189 34.4163763818465895 17.5462896789491865   F   F   F
 28.5797253457403180 34.4163763818465895 17.5462896789491865   F   F   F
 35.0276966897403170 34.4163763818465895 17.5462896789491865   F   F   F
 41.4756680337403196 34.4163763818465895 17.5462896789491865   F   F   F
 52.0502175711403154 46.6342604140465937 17.5462896789491865   F   F   F
 47.9236393777403151 34.4163763818465895 17.5462896789491865   F   F   F
 60.8195820657403203 34.4163763818465895 17.5462896789491865   F   F   F
 17.7470717544403271 40.5253183979465845 17.5462896789491865   F   F   F
 24.1950430984403191 40.5253183979465845 17.5462896789491865   F   F   F
 30.6430144424403181 40.5253183979465845 17.5462896789491865   F   F   F
 37.0909857864403207 40.5253183979465845 17.5462896789491865   F   F   F
 43.5389571304403162 40.5253183979465845 17.5462896789491865   F   F   F
 49.9869284744403188 40.5253183979465845 17.5462896789491865   F   F   F
 56.4348998184403214 40.5253183979465845 17.5462896789491865   F   F   F
 62.8828711624403240 40.5253183979465845 17.5462896789491865   F   F   F
 19.8103608511403237 46.6342604140465937 17.5462896789491865   F   F   F
 26.2583321951403228 46.6342604140465937 17.5462896789491865   F   F   F
 32.7063035391403218 46.6342604140465937 17.5462896789491865   F   F   F
 39.1542748831403173 46.6342604140465937 17.5462896789491865   F   F   F
 54.3716107217403177 34.4163763818465895 17.5462896789491865   F   F   F
 42.7843262695985302 19.1060954656714834 15.6670670430993493   F   F   F
 49.2322976135985328 19.1060954656714834 15.6670670430993493   F   F   F
 55.6802689575985283 19.1060954656714834 15.6670670430993493   F   F   F
 11.8317980050230105  3.8363006524757042 13.7484707469786436   F   F   F
 18.2797693490230095  3.8363006524757042 13.7484707469786436   F   F   F
 24.7277406930230121  3.8363006524757042 13.7484707469786436   F   F   F
 31.1757120370230112  3.8363006524757042 13.7484707469786436   F   F   F
 37.6236833810230209  3.8363006524757042 13.7484707469786436   F   F   F
 44.0716547250230164  3.8363006524757042 13.7484707469786436   F   F   F
 50.5196260690230119  3.8363006524757042 13.7484707469786436   F   F   F
  7.4471157577230116  9.9452426685757054 13.7484707469786436   F   F   F
 13.8950871017230106  9.9452426685757054 13.7484707469786436   F   F   F
 20.3430584457230097  9.9452426685757054 13.7484707469786436   F   F   F
 26.7910297897230123  9.9452426685757054 13.7484707469786436   F   F   F
 33.2390011337230149  9.9452426685757054 13.7484707469786436   F   F   F
 39.6869724777230104  9.9452426685757054 13.7484707469786436   F   F   F
  5.3838266610230114  3.8363006524757042 13.7484707469786436   F   F   F
 46.1349438217230130  9.9452426685757054 13.7484707469786436   F   F   F
  9.5104048544230118 16.0541846846757039 13.7484707469786436   F   F   F
 15.9583761984230108 16.0541846846757039 13.7484707469786436   F   F   F
 22.4063475424230099 16.0541846846757039 13.7484707469786436   F   F   F
 28.8543188864230125 16.0541846846757039 13.7484707469786436   F   F   F
 35.3022902304230115 16.0541846846757039 13.7484707469786436   F   F   F
 41.7502615744229999 16.0541846846757039 13.7484707469786436   F   F   F
 48.1982329184230096 16.0541846846757039 13.7484707469786436   F   F   F
 54.6462042624230051 16.0541846846757039 13.7484707469786436   F   F   F
 11.5736939511230119 22.1631267007757060 13.7484707469786436   F   F   F
 18.0216652951230110 22.1631267007757060 13.7484707469786436   F   F   F
 24.4696366391230100 22.1631267007757060 13.7484707469786436   F   F   F
 30.9176079831230126 22.1631267007757060 13.7484707469786436   F   F   F
 37.3655793271230081 22.1631267007757060 13.7484707469786436   F   F   F
 52.5829151657230085  9.9452426685757054 13.7484707469786436   F   F   F
 43.8135506711230107 22.1631267007757060 13.7484707469786436   F   F   F
 63.1761019836001978 43.8557014474356990 23.0471632434162359   T   T   T
 51.2720327923319985 43.3738513221786803 22.9192639282184842   T   T   T
 20.1356128862570891 25.0826931738663319 22.5594415830877537   T   T   T
 25.0098625689529115 25.1399557724710760 23.0851057319987341   T   T   T
 31.2685051528688938 25.5222499943224364 23.3944979722349196   T   T   T
 38.2735578110283186 25.1033153517346328 23.1112987154834215   T   T   T
 44.2034854374189621 25.4326899415878529 23.0623845468396667   T   T   T
 52.5303827348860963 25.1229295963244148 22.5124280122541656   T   T   T
 57.3975821469657177 24.9979746041099560 23.1868723854816636   T   T   T
 15.9056566402777424 31.2251835565987470 22.6052963443073693   T   T   T
 20.3977289576190515 31.5527339939743463 23.3093785012806620   T   T   T
 27.7674920901617881 31.2492982338748213 23.0347482039757558   T   T   T
 34.1023033069022361 31.4651070759802778 22.8883780194352227   T   T   T
 40.5562409716302668 31.1390226254653761 23.0905310520248790   T   T   T
 47.0213060289259559 31.4562062444996329 22.9692048843585326   T   T   T
 58.5680129752863508 43.3678288941794676 22.5616013178304655   T   T   T
 54.4798530670625709 31.1384618852624087 22.5565079864513791   T   T   T
 16.8360509340190667 37.3253508707407775 23.1896203625081050   T   T   T
 23.8247881864113573 37.4612321226210057 22.5530814942847293   T   T   T
 28.6593177603210165 37.7699483529484965 23.1803136862537293   T   T   T
 35.2638283446160870 37.6837912308250935 23.1198939792274381   T   T   T
 41.4523174250295980 37.9285109102215472 22.8220093132623738   T   T   T
 48.4155652338078397 37.4627653058608914 23.2483570238177606   T   T   T
 55.3107407375128233 37.3269540656833030 23.1606602963025665   T   T   T
 61.2031554327334888 37.3044197537486966 23.2664888158713659   T   T   T
 18.2504089126279219 43.4918167506374260 23.2828275826202322   T   T   T
 25.5248834160789180 43.5110722613943750 23.0795937637061854   T   T   T
 28.8742886270081982 43.9095235612241268 22.1986245448864707   T   T   T
 39.4284428343140831 43.5597065100182093 22.5005808296680847   T   T   T
 43.8371432675816166 43.7429564304703007 23.0207120288422900   T   T   T
 59.3309562069580423 31.3858646069282941 23.0196630694283222   T   T   T
 12.8091951547088367 25.1265210690426883 22.7592480189105579   T   T   T
 50.2615220151230133 22.1631267007757060 13.7484707469786436   F   F   F
 13.6369830478230138 28.2720687168757081 13.7484707469786436   F   F   F
  7.5785881249376397  0.7792694173714815 17.5254423054545576   F   F   F
 14.0265594689376396  0.7792694173714815 17.5254423054545576   F   F   F
 20.4745308129376369  0.7792694173714815 17.5254423054545576   F   F   F
 26.9225021569376359  0.7792694173714815 17.5254423054545576   F   F   F
 33.3704735009376350  0.7792694173714815 17.5254423054545576   F   F   F
 39.8184448449376376  0.7792694173714815 17.5254423054545576   F   F   F
 46.2664161889376402  0.7792694173714815 17.5254423054545576   F   F   F
  3.1939058776376399  6.8882114334714828 17.5254423054545576   F   F   F
  9.6418772216376389  6.8882114334714828 17.5254423054545576   F   F   F
 16.0898485656376344  6.8882114334714828 17.5254423054545576   F   F   F
 22.5378199096376370  6.8882114334714828 17.5254423054545576   F   F   F
 28.9857912536376325  6.8882114334714828 17.5254423054545576   F   F   F
 35.4337625976376387  6.8882114334714828 17.5254423054545576   F   F   F
  1.1306167809376395  0.7792694173714815 17.5254423054545576   F   F   F
 41.8817339416376413  6.8882114334714828 17.5254423054545576   F   F   F
  5.2571949743376392 12.9971534495714813 17.5254423054545576   F   F   F
 11.7051663183376391 12.9971534495714813 17.5254423054545576   F   F   F
 18.1531376623376381 12.9971534495714813 17.5254423054545576   F   F   F
 24.6011090063376372 12.9971534495714813 17.5254423054545576   F   F   F
 31.0490803503376362 12.9971534495714813 17.5254423054545576   F   F   F
 37.4970516943376353 12.9971534495714813 17.5254423054545576   F   F   F
 43.9450230383376379 12.9971534495714813 17.5254423054545576   F   F   F
 50.3929943823376405 12.9971534495714813 17.5254423054545576   F   F   F
  7.3204840710376393 19.1060954656714834 17.5254423054545576   F   F   F
 13.7684554150376393 19.1060954656714834 17.5254423054545576   F   F   F
 20.2164267590376383 19.1060954656714834 17.5254423054545576   F   F   F
 26.6643981030376374 19.1060954656714834 17.5254423054545576   F   F   F
 33.1123694470376364 19.1060954656714834 17.5254423054545576   F   F   F
 48.3297052856376439  6.8882114334714828 17.5254423054545576   F   F   F
 56.7094933591230088 22.1631267007757060 13.7484707469786436   F   F   F
 64.9626497459230166 46.5988947651757002 13.7484707469786436   F   F   F
 52.0667070579230113 46.5988947651757002 13.7484707469786436   F   F   F
 20.0849543918230111 28.2720687168757081 13.7484707469786436   F   F   F
 26.5329257358230102 28.2720687168757081 13.7484707469786436   F   F   F
 32.9808970798230163 28.2720687168757081 13.7484707469786436   F   F   F
 39.4288684238230118 28.2720687168757081 13.7484707469786436   F   F   F
 45.8768397678230144 28.2720687168757081 13.7484707469786436   F   F   F
 52.3248111118230170 28.2720687168757081 13.7484707469786436   F   F   F
 58.7727824558230125 28.2720687168757081 13.7484707469786436   F   F   F
 15.7002721445230140 34.3810107329757102 13.7484707469786436   F   F   F
 22.1482434885230113 34.3810107329757102 13.7484707469786436   F   F   F
 28.5962148325230103 34.3810107329757102 13.7484707469786436   F   F   F
 35.0441861765230129 34.3810107329757102 13.7484707469786436   F   F   F
 41.4921575205230155 34.3810107329757102 13.7484707469786436   F   F   F
 47.9401288645230110 34.3810107329757102 13.7484707469786436   F   F   F
 58.5146784019230140 46.5988947651757002 13.7484707469786436   F   F   F
 54.3881002085230136 34.3810107329757102 13.7484707469786436   F   F   F
 17.7635612412230124 40.4899527490757052 13.7484707469786436   F   F   F
 24.2115325852230114 40.4899527490757052 13.7484707469786436   F   F   F
 30.6595039292230105 40.4899527490757052 13.7484707469786436   F   F   F
 37.1074752732230237 40.4899527490757052 13.7484707469786436   F   F   F
 43.5554466172230121 40.4899527490757052 13.7484707469786436   F   F   F
 50.0034179612230147 40.4899527490757052 13.7484707469786436   F   F   F
 56.4513893052230173 40.4899527490757052 13.7484707469786436   F   F   F
 62.8993606492230128 40.4899527490757052 13.7484707469786436   F   F   F
 19.8268503379230125 46.5988947651757002 13.7484707469786436   F   F   F
 26.2748216819230116 46.5988947651757002 13.7484707469786436   F   F   F
 32.7227930259230106 46.5988947651757002 13.7484707469786436   F   F   F
 39.1707643699230132 46.5988947651757002 13.7484707469786436   F   F   F
 45.6187357139230159 46.5988947651757002 13.7484707469786436   F   F   F
 60.8360715525230091 34.3810107329757102 13.7484707469786436   F   F   F
 55.1602763895816608 19.2362797798218494 23.4228330128757136   T   T   T
 48.6619410536373351 19.1117223979033710 23.3046266890752101   T   T   T
 42.1485404707715716 19.1340340489605545 23.1388851811448752   T   T   T
  2.3607315412398284  3.7389997319907966 19.2881921079983343   T   T   T
  8.5320227152259331  3.8735772401011586 19.3804004326632935   T   T   T
 15.0758509533987777  3.8337266504397793 19.3301497150562405   T   T   T
 21.4787758373323499  3.8599538919429555 19.3561048725323737   T   T   T
 27.9447845853544834  3.7822064990051154 19.3934173107943835   T   T   T
 34.3978783660419154  3.8536655839279597 19.4917769851139617   T   T   T
 40.7581370229429965  3.8601003134154026 19.4295316882381748   T   T   T
 47.4053112528241343  4.0102309022907301 19.1870319005268293   T   T   T
  4.1965880480724866  9.9649364115605845 19.4453782059519149   T   T   T
 10.7070788976837061  9.9857350706394516 19.3306599061494602   T   T   T
 17.0450068032634263  9.9369098254261381 19.4020524135602486   T   T   T
 23.3389975397144980 10.0119275148001012 19.5960599800251494   T   T   T
 30.0967403044836388  9.9076611782995485 19.3650205055441234   T   T   T
 63.9334253443985290 43.5418635300714740 15.6670670430993493   F   F   F
 36.4283540819999416  9.9413451062748965 19.4013311635904486   T   T   T
 49.3514850395890790  9.9312314195611737 19.3880390741340705   T   T   T
  6.2823809462544862 16.0417661148476860 19.3439477810194127   T   T   T
 12.7090765192468318 16.1021652996636213 19.3700765518949822   T   T   T
 19.1731409196813516 16.0292312930054486 19.4001192409036989   T   T   T
 25.7216861508532872 15.9969154106622096 19.3727517605750990   T   T   T
 32.1068682588010788 16.0350238245546279 19.3369492787659674   T   T   T
 38.5689697745792515 16.0581766757413362 19.3456275812783041   T   T   T
 45.0000181229280045 16.0234738061661126 19.3808119335289852   T   T   T
 51.4281800328073189 16.0042605169551884 19.3819600151340481   T   T   T
  8.2693336625712170 22.2101106586167880 19.4096475752542119   T   T   T
 14.7900197974247831 22.2448687920946782 19.3450478606392764   T   T   T
 21.2270851795764059 22.1414100783178824 19.4162558817479827   T   T   T
 27.5225576063580490 22.2568960798650011 19.5457258811846870   T   T   T
 42.9323271318140769  9.9283114582258936 19.3574712305599270   T   T   T
 34.1774165307360605 22.1005987971732800 19.3465710758630891   T   T   T
 57.4854540003985335 43.5418635300714740 15.6670670430993493   F   F   F
 44.5895113123985283 43.5418635300714740 15.6670670430993493   F   F   F
 12.6077586462985316 25.2150374817714820 15.6670670430993493   F   F   F
 19.0557299902985307 25.2150374817714820 15.6670670430993493   F   F   F
 25.5037013342985261 25.2150374817714820 15.6670670430993493   F   F   F
 31.9516726782985288 25.2150374817714820 15.6670670430993493   F   F   F
 38.3996440222985385 25.2150374817714820 15.6670670430993493   F   F   F
 44.8476153662985269 25.2150374817714820 15.6670670430993493   F   F   F
 51.2955867102985295 25.2150374817714820 15.6670670430993493   F   F   F
 57.7435580542985250 25.2150374817714820 15.6670670430993493   F   F   F
 14.6710477429985318 31.3239794978714841 15.6670670430993493   F   F   F
 21.1190190869985308 31.3239794978714841 15.6670670430993493   F   F   F
 27.5669904309985263 31.3239794978714841 15.6670670430993493   F   F   F
 34.0149617749985325 31.3239794978714841 15.6670670430993493   F   F   F
 40.4629331189985209 31.3239794978714841 15.6670670430993493   F   F   F
 51.0374826563985238 43.5418635300714740 15.6670670430993493   F   F   F
 46.9109044629985306 31.3239794978714841 15.6670670430993493   F   F   F
 59.8068471509985287 31.3239794978714841 15.6670670430993493   F   F   F
 16.7343368396985319 37.4329215139714861 15.6670670430993493   F   F   F
 23.1823081836985310 37.4329215139714861 15.6670670430993493   F   F   F
 29.6302795276985265 37.4329215139714861 15.6670670430993493   F   F   F
 36.0782508716985291 37.4329215139714861 15.6670670430993493   F   F   F
 42.5262222156985388 37.4329215139714861 15.6670670430993493   F   F   F
 48.9741935596985272 37.4329215139714861 15.6670670430993493   F   F   F
 55.4221649036985298 37.4329215139714861 15.6670670430993493   F   F   F
 61.8701362476985253 37.4329215139714861 15.6670670430993493   F   F   F
 18.7976259363985285 43.5418635300714740 15.6670670430993493   F   F   F
 25.2455972803985276 43.5418635300714740 15.6670670430993493   F   F   F
 31.6935686243985266 43.5418635300714740 15.6670670430993493   F   F   F
 38.1415399683985328 43.5418635300714740 15.6670670430993493   F   F   F
 53.3588758069985332 31.3239794978714841 15.6670670430993493   F   F   F
 40.5753348886699996 22.2244552822856782 19.3521136554226381   T   T   T
 47.0375572128289505 22.1545523259521531 19.3955390973080171   T   T   T
 53.4622978830187279 22.1585868454240789 19.3972598706676855   T   T   T
 11.0978275391617629  0.9074366729594071 22.7828549777263198   T   T   T
 18.3304509611349395  0.6602271339916055 22.5804409658413512   T   T   T
 23.0661129604956869  0.8825363315374621 23.0339429266883684   T   T   T
 29.5338565864926643  0.8528972505019463 23.1669684662085587   T   T   T
 35.4469630681506302  0.5742009654965343 23.3469236545771963   T   T   T
 41.9968709955551347  1.3363490975811836 23.0320143107564590   T   T   T
 48.5762389120590754  1.3295387964192178 22.9554236546217325   T   T   T
  5.2888730357409823  7.1824610133498883 23.0439312872373563   T   T   T
 12.1489822622259513  7.0889346507651521 23.4363842027049962   T   T   T
 18.4073983685547553  7.2298343719064722 23.0047144688408629   T   T   T
 25.3971701310194042  7.0126562107071448 23.1806266693989222   T   T   T
 32.3202203707191913  6.8224742833282868 22.9761637117973834   T   T   T
 39.7226550521041943  6.6949721263845134 22.5200712228227040   T   T   T
  3.4227953008199230  1.3899480883783606 22.7989069590616324   T   T   T
 44.8185290612562568  6.8387474231113359 23.0321714486960367   T   T   T
  8.0396578401977905 13.2225474766962510 23.4107063706344327   T   T   T
 14.2945923781104636 13.3233853118155263 23.2061204094305644   T   T   T
 21.0695380348369277 13.0293289113139590 22.9772132214394311   T   T   T
 28.1160497800598570 12.6878836828662678 23.1014419046138784   T   T   T
 35.3960667588922746 12.9027794948864862 22.4609075247864567   T   T   T
 39.9543239456985972 13.3341334773513207 23.1720075195008910   T   T   T
 46.9784603691850293 13.1527575440399378 23.0391172567994751   T   T   T
 53.3821449809670199 12.5989978140959664 23.0170753566622714   T   T   T
  9.3941748210972076 19.5229410139317068 23.1182694108143423   T   T   T
 16.3022591622984798 19.3175522033990568 23.2667874015176963   T   T   T
 22.8474122078851920 18.9858716519235955 23.2596601219676202   T   T   T
 30.7410005271048732 19.2118998684125408 22.4367213911234771   T   T   T
 36.3021622307587819 18.8290018576661069 23.4345644860249394   T   T   T
 52.2726397076578166  6.4035455013073745 22.6782873582503868   T   T   T
 61.7790998497295405 46.5550170337933409 19.3494450947472352   T   T   T
 55.2950813999908775 46.5958967778781954 19.3583120370098420   T   T   T
 48.9230032603923277 46.5377623859038039 19.3634150258297701   T   T   T
 10.2586481907665732 28.3528501536481592 19.5226476173806986   T   T   T
 16.8449377520278993 28.2483761613287108 19.4066283518239970   T   T   T
 23.2737421007379588 28.2941829857316094 19.3671862886838291   T   T   T
 29.7629363551612904 28.3662506460109078 19.3382608651656973   T   T   T
 36.1635932016053729 28.2838820634085195 19.3774178516046547   T   T   T
 42.6826266509358376 28.2929585686249716 19.3583088913648815   T   T   T
 49.0901818360877584 28.3040296912602507 19.4004243480518994   T   T   T
 55.5162744136881372 28.2310193482359999 19.3974764516953861   T   T   T
 12.4507425437495556 34.3721111495823024 19.3967622894545713   T   T   T
 18.9523162031976824 34.4364658846794995 19.3311967776716394   T   T   T
 25.3753226410477097 34.4109360274186713 19.3988477296055528   T   T   T
 31.8613929342087161 34.4117255492308161 19.3592785704556718   T   T   T
 38.3001786846463830 34.2917407359274335 19.3459415666013363   T   T   T
 44.7662805931107499 34.3612989674753706 19.3547363063831845   T   T   T
 51.1368180575998466 34.3993584497321692 19.3693089667014746   T   T   T
 57.6457366004237315 34.4652822095092120 19.3581323015663003   T   T   T
 14.5423634015957823 40.4834998038894511 19.3976908262739940   T   T   T
 20.9759001467625481 40.5062597657230583 19.3895753127845687   T   T   T
 27.4193025332421421 40.3621018340227025 19.4457347046622893   T   T   T
 33.8676806933252053 40.5190993490863249 19.3478900732229278   T   T   T
 40.3223196851085675 40.4535446295434369 19.4432635769978006   T   T   T
 46.6824032890262046 40.5443530823589668 19.4364405115553573   T   T   T
 53.2050293780822088 40.5043346435793197 19.3586178682942425   T   T   T
 59.7472294511397664 40.4389170108628946 19.3699151049560498   T   T   T
 16.6108550482737094 46.6428926859479276 19.3650250166708453   T   T   T
 23.0623976151521219 46.5835613241443411 19.3738263714783265   T   T   T
 29.5880541553464305 46.5818031315652874 19.3657797207184643   T   T   T
 35.9554638054485736 46.6048546343855392 19.3859763598703871   T   T   T
 42.3522390784508644 46.6424519984095411 19.4474002593347173   T   T   T
 46.0083121350376416 19.1060954656714834 17.5254423054545576   F   F   F
 22.5092956362257546  6.9142530224699872 13.7457805260363646   F   F   F
